%%MatrixMarket matrix coordinate real general
%Reordered M matrix using quantum partitioning with k=32
960 960 10098
1 1 1.4725713002322107E2
1 24 -1.9273972041794224E1
1 27 -4.628913770275638
1 36 7.798496814464517
1 75 -6.6780356955993625
1 94 1.6572469122404595E1
1 109 2.1880080907417863E1
1 110 3.121476508985299E1
1 177 -2.0324333381562603E1
1 180 1.6591618439984053E1
2 2 1.4725713002322107E2
2 25 -1.9273972041794224E1
2 29 -4.628913770275638
2 38 7.798496814464517
2 74 3.121476508985299E1
2 96 1.6572469122404595E1
2 179 -2.0324333381562603E1
2 181 1.6591618439984053E1
2 203 -6.6780356955993625
2 230 2.1880080907417863E1
3 3 2.3533164176530366E2
3 5 2.050107106128485E1
3 15 -1.1330485477198959E1
3 24 -1.0989457799042223E2
3 69 -7.705618488030858E1
3 109 3.861314815277766E1
3 128 3.228970097203371
3 185 -9.559788213300696E1
3 188 -2.6478233022087114E1
4 4 2.3533164176530366E2
4 7 2.050107106128485E1
4 16 -1.1330485477198959E1
4 25 -1.0989457799042223E2
4 71 -7.705618488030858E1
4 187 -9.559788213300696E1
4 190 -2.6478233022087114E1
4 205 3.228970097203371
4 230 3.861314815277766E1
5 3 2.0501071061285337E1
5 5 3.2527632092413756E2
5 8 1.0266819475107908E1
5 12 -2.0446303444518296E1
5 15 -1.627271724837628E1
5 24 -1.207465731787231E1
5 188 -6.44214982566727E1
5 297 -1.1761477724498516E1
5 306 4.247886861527308
6 6 3.2527632092413756E2
6 9 1.0266819475107908E1
6 13 -2.0446303444518296E1
6 46 -1.627271724837628E1
6 49 4.247886861527308
6 51 -1.207465731787231E1
6 167 2.0501071061285337E1
6 189 -6.44214982566727E1
6 365 -1.1761477724498516E1
7 4 2.0501071061285337E1
7 7 3.2527632092413756E2
7 14 -2.0446303444518296E1
7 16 -1.627271724837628E1
7 25 -1.207465731787231E1
7 50 4.247886861527308
7 190 -6.44214982566727E1
7 281 1.0266819475107908E1
7 298 -1.1761477724498516E1
8 5 1.0266819475107559E1
8 8 1.0926618631089518E2
8 10 1.5491716224287183E1
8 12 -1.6620384980638413E1
8 19 -5.181378546655171E1
8 22 4.141456486146193
8 297 -5.398991393048046E1
8 300 -3.105105885750325E1
8 306 2.3097902334802882E1
8 338 -9.93881392555721
9 6 1.0266819475107559E1
9 9 1.0926618631089518E2
9 13 -1.6620384980638413E1
9 20 -5.181378546655171E1
9 48 4.141456486146193
9 49 2.3097902334802882E1
9 301 -3.105105885750325E1
9 365 -5.398991393048046E1
9 560 1.5491716224287183E1
9 580 -9.93881392555721
10 8 1.5491716224285964E1
10 10 1.1627934774573643E2
10 19 -6.2467362127048865E1
10 300 -7.06341357437688
10 327 -1.537774789336204E1
10 338 -1.3383220437380073E1
10 562 2.669296850085767E1
10 570 -3.1811611106967645
10 583 -1.8467709104250723E1
11 11 3.4178046243404503E2
11 23 2.722138132923942E1
11 35 1.4054343261920188E-1
11 279 4.3267791241177385
11 280 1.8033182754638997E1
11 302 4.120400476475089E1
11 569 -2.120368828499821
11 585 -1.957129740544707E1
11 724 5.801358064705415
11 728 1.1957690335580665E1
11 740 -4.5914005340586016E1
12 5 -2.0446303444518843E1
12 8 -1.6620384980639376E1
12 12 5.422707336042772E2
12 15 -1.1670886325430226E2
12 17 -2.826522044623327E1
12 19 2.042630249548386E1
12 22 -7.852498666208413E1
12 24 3.832323741118198E1
12 306 7.800757555005897E-1
12 957 -6.6431494349096445
13 6 -2.0446303444518843E1
13 9 -1.6620384980639376E1
13 13 5.422707336042772E2
13 20 2.042630249548386E1
13 46 -1.1670886325430226E2
13 47 -2.826522044623327E1
13 48 -7.852498666208413E1
13 49 7.800757555005897E-1
13 51 3.832323741118198E1
13 958 -6.6431494349096445
14 7 -2.0446303444518843E1
14 14 5.422707336042772E2
14 16 -1.1670886325430226E2
14 18 -2.826522044623327E1
14 21 2.042630249548386E1
14 23 -7.852498666208413E1
14 25 3.832323741118198E1
14 50 7.800757555005897E-1
14 281 -1.6620384980639376E1
14 735 -6.6431494349096445
15 3 -1.1330485477198447E1
15 5 -1.627271724837609E1
15 12 -1.1670886325430237E2
15 15 3.1378658348608536E2
15 17 -1.0633359734107749E2
15 22 6.295202812481639E1
15 24 -9.965029050946143E1
15 69 1.3722359443212193
15 72 -4.460645713668051E1
15 110 1.2717349455088604E1
16 4 -1.1330485477198447E1
16 7 -1.627271724837609E1
16 14 -1.1670886325430237E2
16 16 3.1378658348608536E2
16 18 -1.0633359734107749E2
16 23 6.295202812481639E1
16 25 -9.965029050946143E1
16 71 1.3722359443212193
16 73 -4.460645713668051E1
16 74 1.2717349455088604E1
17 12 -2.8265220446233542E1
17 15 -1.0633359734107837E2
17 17 8.922040243235231E2
17 22 -8.579789795975806E1
17 24 1.0877217819903206E2
17 39 1.66454661065577E2
17 72 6.212648244990829
17 110 -1.9899858376900346E2
17 951 -1.7197571893674763E1
17 954 -2.1853382234659446
17 957 7.398585346877631
17 959 -7.134889694436067E1
18 14 -2.8265220446233542E1
18 16 -1.0633359734107837E2
18 18 8.922040243235231E2
18 23 -8.579789795975806E1
18 25 1.0877217819903206E2
18 41 1.66454661065577E2
18 73 6.212648244990829
18 74 -1.9899858376900346E2
18 734 -2.1853382234659446
18 735 7.398585346877631
18 932 -7.134889694436067E1
18 953 -1.7197571893674763E1
19 8 -5.181378546655198E1
19 10 -6.2467362127048254E1
19 12 2.042630249548417E1
19 19 3.789557496566838E2
19 22 8.87323332324631
19 300 1.8395234073575455E1
19 570 1.1952510864428186E1
19 583 6.026225582604583E1
19 731 -1.5627830693852912E1
19 738 3.343432994529912E1
19 957 -2.331401972202123E1
20 9 -5.181378546655198E1
20 13 2.042630249548417E1
20 20 3.789557496566838E2
20 48 8.87323332324631
20 301 1.8395234073575455E1
20 560 -6.2467362127048254E1
20 571 1.1952510864428186E1
20 584 6.026225582604583E1
20 732 -1.5627830693852912E1
20 739 3.343432994529912E1
20 958 -2.331401972202123E1
21 14 2.042630249548417E1
21 21 3.789557496566838E2
21 23 8.87323332324631
21 281 -5.181378546655198E1
21 302 1.8395234073575455E1
21 561 -6.2467362127048254E1
21 572 1.1952510864428186E1
21 585 6.026225582604583E1
21 733 -1.5627830693852912E1
21 735 -2.331401972202123E1
21 740 3.343432994529912E1
22 8 4.141456486146012
22 12 -7.852498666208405E1
22 15 6.295202812481655E1
22 17 -8.579789795975832E1
22 19 8.873233323246325
22 22 7.497066440802071E2
22 24 -7.801038035980592E1
22 33 1.9096615683163094
22 36 4.317347956837564E1
22 39 -1.374589033534124E2
22 42 2.7221381329239136E1
22 44 -3.6471900117909854E1
22 110 3.970113987180993E1
22 278 1.8528416259810584E1
22 300 -3.8301811488842226E1
22 306 -1.734839084275901
22 583 1.8435242748943942E1
22 725 4.610698556805318
22 738 -4.499129354940654E1
22 767 -6.421243225881544
22 954 3.8508743880434713
22 957 -5.153787116585645E1
22 959 5.065159524301582E1
23 11 2.7221381329239136E1
23 14 -7.852498666208405E1
23 16 6.295202812481655E1
23 18 -8.579789795975832E1
23 21 8.873233323246325
23 23 7.497066440802071E2
23 25 -7.801038035980592E1
23 35 1.9096615683163094
23 38 4.317347956837564E1
23 41 -1.374589033534124E2
23 50 -1.734839084275901
23 74 3.970113987180993E1
23 279 1.8528416259810584E1
23 281 4.141456486146012
23 302 -3.8301811488842226E1
23 585 1.8435242748943942E1
23 727 4.610698556805318
23 728 -3.6471900117909854E1
23 734 3.8508743880434713
23 735 -5.153787116585645E1
23 737 -6.421243225881544
23 740 -4.499129354940654E1
23 932 5.065159524301582E1
24 1 -1.9273972041794025E1
24 3 -1.0989457799042177E2
24 5 -1.2074657317872575E1
24 12 3.832323741118167E1
24 15 -9.965029050946173E1
24 17 1.0877217819903208E2
24 22 -7.801038035980552E1
24 24 6.080657868421666E2
24 27 -2.125026514624342E1
24 33 7.60300295872062E1
24 36 -4.860739111626347E1
24 69 8.16647905974715E1
24 109 6.3881519819161525E1
24 110 -1.0470107407647828E2
24 177 -6.391191645641311E1
24 180 -2.5278633516417003E1
24 185 6.866594221174853E1
24 188 -2.506651914501392E1
24 306 -3.60992255085326E1
25 2 -1.9273972041794025E1
25 4 -1.0989457799042177E2
25 7 -1.2074657317872575E1
25 14 3.832323741118167E1
25 16 -9.965029050946173E1
25 18 1.0877217819903208E2
25 23 -7.801038035980552E1
25 25 6.080657868421666E2
25 29 -2.125026514624342E1
25 35 7.60300295872062E1
25 38 -4.860739111626347E1
25 50 -3.60992255085326E1
25 71 8.16647905974715E1
25 74 -1.0470107407647828E2
25 179 -6.391191645641311E1
25 181 -2.5278633516417003E1
25 187 6.866594221174853E1
25 190 -2.506651914501392E1
25 230 6.3881519819161525E1
26 26 1.4725713002322107E2
26 28 -4.628913770275638
26 32 1.6591618439984053E1
26 37 7.798496814464517
26 51 -1.9273972041794224E1
26 95 1.6572469122404595E1
26 111 3.121476508985299E1
26 178 -2.0324333381562603E1
26 202 -6.6780356955993625
26 229 2.1880080907417863E1
27 1 -4.628913770275894
27 24 -2.1250265146243024E1
27 27 9.255916536036938E1
27 33 -3.673832408765791E1
27 36 2.6852157527906613
27 180 9.504794190684684
27 278 4.6231945595390584
27 282 2.9983142246956405
27 306 1.0316292064698771E1
28 26 -4.628913770275894
28 28 9.255916536036938E1
28 30 4.6231945595390584
28 32 9.504794190684684
28 34 -3.673832408765791E1
28 37 2.6852157527906613
28 49 1.0316292064698771E1
28 51 -2.1250265146243024E1
28 283 2.9983142246956405
29 2 -4.628913770275894
29 25 -2.1250265146243024E1
29 29 9.255916536036938E1
29 35 -3.673832408765791E1
29 38 2.6852157527906613
29 50 1.0316292064698771E1
29 181 9.504794190684684
29 279 4.6231945595390584
29 284 2.9983142246956405
30 28 4.623194559538831
30 30 1.1706776689261349E2
30 34 -1.6222602982716936E1
30 43 4.326779124116772
30 48 1.852841625980949E1
30 49 2.6625820326094377E1
30 283 -1.1064327300682912E1
30 292 2.1551577521565815
30 301 -7.558349965939001
30 551 2.9563197764069145
31 31 1.0239658769987466E2
31 42 1.8033182754637902E1
31 278 2.956319776407227
31 285 3.052106550848684
31 291 1.8803078440758938
31 300 -9.301245260939673
31 552 6.82336492119245
31 568 6.637222085678573
31 583 -1.7370626280149196E1
32 26 1.6591618439983584E1
32 28 9.504794190685182
32 32 4.626987755636913E2
32 49 -1.1623118744587705E2
32 51 -2.5278633516416363E1
32 178 4.6045301836715616E1
32 183 -6.066010456262021E1
32 189 5.580663278594615E1
32 283 3.4865845311685
32 364 1.4211551876907215E1
33 22 1.9096615683161957
33 24 7.603002958720577E1
33 27 -3.673832408765848E1
33 33 2.039301684161717E2
33 36 -2.560265829739678E1
33 39 4.223586976601002
33 42 1.40543432619479E-1
33 44 8.158846548678156E-1
33 278 -1.6222602982716907E1
33 306 5.531112272459225
34 28 -3.673832408765848E1
34 30 -1.6222602982716907E1
34 34 2.039301684161717E2
34 37 -2.560265829739678E1
34 40 4.223586976601002
34 43 1.40543432619479E-1
34 45 8.158846548678156E-1
34 48 1.9096615683161957
34 49 5.531112272459225
34 51 7.603002958720577E1
35 11 1.40543432619479E-1
35 23 1.9096615683161957
35 25 7.603002958720577E1
35 29 -3.673832408765848E1
35 35 2.039301684161717E2
35 38 -2.560265829739678E1
35 41 4.223586976601002
35 50 5.531112272459225
35 279 -1.6222602982716907E1
35 728 8.158846548678156E-1
36 1 7.798496814464944
36 22 4.31734795683751E1
36 24 -4.860739111626282E1
36 27 2.6852157527902634
36 33 -2.5602658297396736E1
36 36 1.75800907523317E2
36 39 -2.6491422805798088E1
36 94 6.455609943046522
36 97 -1.0489318592576069E-2
36 110 2.246266294349266E1
37 26 7.798496814464944
37 28 2.6852157527902634
37 34 -2.5602658297396736E1
37 37 1.75800907523317E2
37 40 -2.6491422805798088E1
37 48 4.31734795683751E1
37 51 -4.860739111626282E1
37 95 6.455609943046522
37 98 -1.0489318592576069E-2
37 111 2.246266294349266E1
38 2 7.798496814464944
38 23 4.31734795683751E1
38 25 -4.860739111626282E1
38 29 2.6852157527902634
38 35 -2.5602658297396736E1
38 38 1.75800907523317E2
38 41 -2.6491422805798088E1
38 74 2.246266294349266E1
38 96 6.455609943046522
38 99 -1.0489318592576069E-2
39 17 1.6645466106557865E2
39 22 -1.3745890335341142E2
39 33 4.223586976601279
39 36 -2.649142280579718E1
39 39 4.675025146322832E2
39 44 1.3929060130754372E1
39 97 5.397306330906879
39 110 -1.506215758291061E1
39 725 4.338904438655902
39 917 -1.2586610911383993E1
39 959 -6.454302844589994E1
40 34 4.223586976601279
40 37 -2.649142280579718E1
40 40 4.675025146322832E2
40 45 1.3929060130754372E1
40 47 1.6645466106557865E2
40 48 -1.3745890335341142E2
40 98 5.397306330906879
40 111 -1.506215758291061E1
40 726 4.338904438655902
40 918 -1.2586610911383993E1
40 960 -6.454302844589994E1
41 18 1.6645466106557865E2
41 23 -1.3745890335341142E2
41 35 4.223586976601279
41 38 -2.649142280579718E1
41 41 4.675025146322832E2
41 74 -1.506215758291061E1
41 99 5.397306330906879
41 727 4.338904438655902
41 728 1.3929060130754372E1
41 919 -1.2586610911383993E1
41 932 -6.454302844589994E1
42 22 2.722138132923942E1
42 31 1.8033182754638997E1
42 33 1.4054343261920188E-1
42 42 3.4178046243404503E2
42 44 1.1957690335580665E1
42 278 4.3267791241177385
42 300 4.120400476475089E1
42 568 -2.120368828499821
42 583 -1.957129740544707E1
42 722 5.801358064705415
42 738 -4.5914005340586016E1
43 30 4.3267791241177385
43 34 1.4054343261920188E-1
43 43 3.4178046243404503E2
43 45 1.1957690335580665E1
43 48 2.722138132923942E1
43 301 4.120400476475089E1
43 551 1.8033182754638997E1
43 584 -1.957129740544707E1
43 608 -2.120368828499821
43 723 5.801358064705415
43 739 -4.5914005340586016E1
44 22 -3.6471900117907126E1
44 33 8.158846548652008E-1
44 39 1.3929060130755502E1
44 42 1.1957690335580523E1
44 44 1.1109891887631919E2
44 722 -2.090343011113518
44 725 -6.8715658912033E1
44 738 1.3003083052052379E1
44 959 -2.239320697938524
45 34 8.158846548652008E-1
45 40 1.3929060130755502E1
45 43 1.1957690335580523E1
45 45 1.1109891887631919E2
45 48 -3.6471900117907126E1
45 723 -2.090343011113518
45 726 -6.8715658912033E1
45 739 1.3003083052052379E1
45 960 -2.239320697938524
46 6 -1.627271724837609E1
46 13 -1.1670886325430237E2
46 46 3.1378658348608536E2
46 47 -1.0633359734107749E2
46 48 6.295202812481639E1
46 51 -9.965029050946143E1
46 70 1.3722359443212193
46 111 1.2717349455088604E1
46 167 -1.1330485477198447E1
46 956 -4.460645713668051E1
47 13 -2.8265220446233542E1
47 40 1.66454661065577E2
47 46 -1.0633359734107837E2
47 47 8.922040243235231E2
47 48 -8.579789795975806E1
47 51 1.0877217819903206E2
47 111 -1.9899858376900346E2
47 952 -1.7197571893674763E1
47 955 -2.1853382234659446
47 956 6.212648244990829
47 958 7.398585346877631
47 960 -7.134889694436067E1
48 9 4.141456486146012
48 13 -7.852498666208405E1
48 20 8.873233323246325
48 30 1.8528416259810584E1
48 34 1.9096615683163094
48 37 4.317347956837564E1
48 40 -1.374589033534124E2
48 43 2.7221381329239136E1
48 45 -3.6471900117909854E1
48 46 6.295202812481655E1
48 47 -8.579789795975832E1
48 48 7.497066440802071E2
48 49 -1.734839084275901
48 51 -7.801038035980592E1
48 111 3.970113987180993E1
48 301 -3.8301811488842226E1
48 584 1.8435242748943942E1
48 726 4.610698556805318
48 736 -6.421243225881544
48 739 -4.499129354940654E1
48 955 3.8508743880434713
48 958 -5.153787116585645E1
48 960 5.065159524301582E1
49 6 4.247886861527408
49 9 2.3097902334804246E1
49 13 7.80075755499789E-1
49 28 1.0316292064699809E1
49 30 2.6625820326094207E1
49 32 -1.1623118744587686E2
49 34 5.531112272459126
49 48 -1.7348390842775778
49 49 3.963817362654897E2
49 51 -3.609922550853206E1
49 189 -4.5039765214604245E1
49 283 -4.485429753021475E1
49 301 -6.1522733043487946E1
49 304 -9.823100302637176
49 364 -7.746371160073932E1
49 365 -8.367367826284956E1
49 369 1.442993387786968E1
50 7 4.247886861527408
50 14 7.80075755499789E-1
50 23 -1.7348390842775778
50 25 -3.609922550853206E1
50 29 1.0316292064699809E1
50 35 5.531112272459126
50 50 3.963817362654897E2
50 181 -1.1623118744587686E2
50 190 -4.5039765214604245E1
50 279 2.6625820326094207E1
50 281 2.3097902334804246E1
50 284 -4.485429753021475E1
50 298 -8.367367826284956E1
50 302 -6.1522733043487946E1
50 305 -9.823100302637176
50 382 -7.746371160073932E1
50 391 1.442993387786968E1
51 6 -1.2074657317872575E1
51 13 3.832323741118167E1
51 26 -1.9273972041794025E1
51 28 -2.125026514624342E1
51 32 -2.5278633516417003E1
51 34 7.60300295872062E1
51 37 -4.860739111626347E1
51 46 -9.965029050946173E1
51 47 1.0877217819903208E2
51 48 -7.801038035980552E1
51 49 -3.60992255085326E1
51 51 6.080657868421666E2
51 70 8.16647905974715E1
51 111 -1.0470107407647828E2
51 167 -1.0989457799042177E2
51 178 -6.391191645641311E1
51 186 6.866594221174853E1
51 189 -2.506651914501392E1
51 229 6.3881519819161525E1
52 52 1.7911541011260974E2
52 55 -2.5125720217109664
52 58 -1.1028745292648054E2
52 72 -1.6344471221442426E1
52 106 -1.2078820927687786E1
52 110 1.8241593368004878
52 931 -3.040999490603697E1
52 936 -3.161192774920938
52 942 9.247020380466553
53 53 1.7911541011260974E2
53 56 -2.5125720217109664
53 59 -1.1028745292648054E2
53 107 -1.2078820927687786E1
53 108 -3.040999490603697E1
53 111 1.8241593368004878
53 937 -3.161192774920938
53 943 9.247020380466553
53 956 -1.6344471221442426E1
54 54 1.7911541011260974E2
54 57 -2.5125720217109664
54 60 -1.1028745292648054E2
54 67 -1.2078820927687786E1
54 68 -3.040999490603697E1
54 73 -1.6344471221442426E1
54 74 1.8241593368004878
54 938 -3.161192774920938
54 944 9.247020380466553
55 52 -2.512572021711336
55 55 3.89925769255815E2
55 58 -3.5170701001505215E1
55 61 -2.046171307515499E2
55 69 -4.2468101899257036E1
55 72 2.9481756192887154E1
55 103 7.207596624668895E-1
55 106 -5.852885725206448
55 109 1.557164897692057E1
55 110 3.26928535536215E1
55 141 4.949469834933803
56 53 -2.512572021711336
56 56 3.89925769255815E2
56 59 -3.5170701001505215E1
56 62 -2.046171307515499E2
56 70 -4.2468101899257036E1
56 104 7.207596624668895E-1
56 107 -5.852885725206448
56 111 3.26928535536215E1
56 142 4.949469834933803
56 229 1.557164897692057E1
56 956 2.9481756192887154E1
57 54 -2.512572021711336
57 57 3.89925769255815E2
57 60 -3.5170701001505215E1
57 63 -2.046171307515499E2
57 67 -5.852885725206448
57 71 -4.2468101899257036E1
57 73 2.9481756192887154E1
57 74 3.26928535536215E1
57 105 7.207596624668895E-1
57 143 4.949469834933803
57 230 1.557164897692057E1
58 52 -1.1028745292648057E2
58 55 -3.517070100150516E1
58 58 1.904642115484034E2
58 61 3.3107336344185015E1
58 64 -1.5067628599471025E1
58 72 -1.851736664352771E1
58 942 4.521010193136979
58 945 -1.9436384180492123E1
59 53 -1.1028745292648057E2
59 56 -3.517070100150516E1
59 59 1.904642115484034E2
59 62 3.3107336344185015E1
59 65 -1.5067628599471025E1
59 943 4.521010193136979
59 946 -1.9436384180492123E1
59 956 -1.851736664352771E1
60 54 -1.1028745292648057E2
60 57 -3.517070100150516E1
60 60 1.904642115484034E2
60 63 3.3107336344185015E1
60 66 -1.5067628599471025E1
60 73 -1.851736664352771E1
60 944 4.521010193136979
60 947 -1.9436384180492123E1
61 55 -2.0461713075154987E2
61 58 3.310733634418532E1
61 61 2.4683339458338548E2
61 64 -3.91573885803432E1
61 69 1.1836408604776198E1
61 72 -9.432177579801717E-1
61 141 -6.609701743718882
61 144 6.701124187210271
61 152 -5.0980397804812805
62 56 -2.0461713075154987E2
62 59 3.310733634418532E1
62 62 2.4683339458338548E2
62 65 -3.91573885803432E1
62 70 1.1836408604776198E1
62 142 -6.609701743718882
62 145 6.701124187210271
62 153 -5.0980397804812805
62 956 -9.432177579801717E-1
63 57 -2.0461713075154987E2
63 60 3.310733634418532E1
63 63 2.4683339458338548E2
63 66 -3.91573885803432E1
63 71 1.1836408604776198E1
63 73 -9.432177579801717E-1
63 143 -6.609701743718882
63 146 6.701124187210271
63 154 -5.0980397804812805
64 58 -1.5067628599470975E1
64 61 -3.915738858034322E1
64 64 6.429755947077192E1
64 69 -9.37225513390932
64 72 -8.589124589817336
64 152 4.7508352887012055
64 945 3.991147012439312
65 59 -1.5067628599470975E1
65 62 -3.915738858034322E1
65 65 6.429755947077192E1
65 70 -9.37225513390932
65 153 4.7508352887012055
65 946 3.991147012439312
65 956 -8.589124589817336
66 60 -1.5067628599470975E1
66 63 -3.915738858034322E1
66 66 6.429755947077192E1
66 71 -9.37225513390932
66 73 -8.589124589817336
66 154 4.7508352887012055
66 947 3.991147012439312
67 54 -1.2078820927688014E1
67 57 -5.8528857252061925
67 67 8.768009782309497E1
67 68 1.8029460318240602E1
67 74 -7.002341968724071
67 90 -1.686250231180162E1
67 93 -4.593411187162019
67 105 1.7149965725074736
68 54 -3.0409994906038044E1
68 67 1.8029460318240943E1
68 68 2.132204128071367E2
68 73 -5.97735339901869E1
68 74 -3.2136613520529785E1
68 93 4.636614576597907
68 99 -1.1189567579852522
68 913 -2.7015437091943284E1
68 919 4.410723337383827E1
68 932 -2.2747892867052173E1
68 938 -2.267440179592028E1
69 3 -7.705618488030767E1
69 15 1.3722359443210772
69 24 8.166479059747084E1
69 55 -4.246810189925723E1
69 61 1.183640860477624E1
69 64 -9.372255133909363
69 69 2.4899525164218332E2
69 72 -8.122312412084879
69 109 1.780052394756724E1
69 110 -1.629304490865168E1
69 128 -2.3217428346157785E1
69 130 1.3136431826300829E1
69 141 1.504771305107936E1
69 144 -4.941913092679471
69 152 -1.9338447286694986
70 46 1.3722359443210772
70 51 8.166479059747084E1
70 56 -4.246810189925723E1
70 62 1.183640860477624E1
70 65 -9.372255133909363
70 70 2.4899525164218332E2
70 111 -1.629304490865168E1
70 142 1.504771305107936E1
70 145 -4.941913092679471
70 153 -1.9338447286694986
70 161 1.3136431826300829E1
70 167 -7.705618488030767E1
70 204 -2.3217428346157785E1
70 229 1.780052394756724E1
70 956 -8.122312412084879
71 4 -7.705618488030767E1
71 16 1.3722359443210772
71 25 8.166479059747084E1
71 57 -4.246810189925723E1
71 63 1.183640860477624E1
71 66 -9.372255133909363
71 71 2.4899525164218332E2
71 73 -8.122312412084879
71 74 -1.629304490865168E1
71 143 1.504771305107936E1
71 146 -4.941913092679471
71 154 -1.9338447286694986
71 162 1.3136431826300829E1
71 205 -2.3217428346157785E1
71 230 1.780052394756724E1
72 15 -4.460645713668039E1
72 17 6.212648244990506
72 52 -1.634447122144246E1
72 55 2.948175619288696E1
72 58 -1.851736664352771E1
72 61 -9.43217757980257E-1
72 64 -8.589124589817313
72 69 -8.122312412084256
72 72 3.6562701790062584E2
72 110 5.338984920452147E1
72 931 -5.977353399018578E1
72 936 1.5763118555674028E1
72 942 5.185056523415569
72 945 -5.5444261066611364
72 951 -2.029386267790999
72 959 5.9172917195606736E1
73 16 -4.460645713668039E1
73 18 6.212648244990506
73 54 -1.634447122144246E1
73 57 2.948175619288696E1
73 60 -1.851736664352771E1
73 63 -9.43217757980257E-1
73 66 -8.589124589817313
73 68 -5.977353399018578E1
73 71 -8.122312412084256
73 73 3.6562701790062584E2
73 74 5.338984920452147E1
73 932 5.9172917195606736E1
73 938 1.5763118555674028E1
73 944 5.185056523415569
73 947 -5.5444261066611364
73 953 -2.029386267790999
74 2 3.1214765089852662E1
74 16 1.2717349455088945E1
74 18 -1.9899858376900266E2
74 23 3.970113987180928E1
74 25 -1.04701074076478E2
74 38 2.2462662943491893E1
74 41 -1.5062157582909835E1
74 54 1.8241593368004256
74 57 3.269285355362138E1
74 67 -7.002341968724087
74 68 -3.213661352053045E1
74 71 -1.6293044908652462E1
74 73 5.338984920452141E1
74 74 4.485160314550258E2
74 90 2.031740164028612E1
74 93 -4.31236466681591
74 96 -1.5856307474347986E1
74 99 6.40446916124148E-1
74 105 2.8388018487697835E1
74 230 -2.1453402515056375E1
74 932 5.606480566808054E1
75 1 -6.67803569559878
75 75 5.790742235332598E1
75 94 3.0746625622407606
75 100 7.189136748661042
75 109 -1.7063066247495044E1
75 177 -1.5787725697313832E1
75 200 2.102467904894688
75 217 4.455372113665646
76 76 2.7511700636456567E1
76 79 -3.6055557898239954
76 85 -2.4159901318201435E1
76 88 -6.212776215531619E-1
76 94 -6.2995460684280005
76 100 1.6015360077919638
76 138 -9.272200532369368E-2
77 77 2.7511700636456567E1
77 80 -3.6055557898239954
77 86 -2.4159901318201435E1
77 89 -6.212776215531619E-1
77 95 -6.2995460684280005
77 101 1.6015360077919638
77 139 -9.272200532369368E-2
78 78 2.7511700636456567E1
78 81 -3.6055557898239954
78 87 -2.4159901318201435E1
78 90 -6.212776215531619E-1
78 96 -6.2995460684280005
78 102 1.6015360077919638
78 140 -9.272200532369368E-2
79 76 -3.6055557898238817
79 79 2.392326640215066E1
79 82 -7.247515028961374
79 88 3.0119104004853625E-1
79 91 -3.823947216762406
79 94 -2.598136483867492
79 97 5.169550395360503E-1
80 77 -3.6055557898238817
80 80 2.392326640215066E1
80 83 -7.247515028961374
80 89 3.0119104004853625E-1
80 92 -3.823947216762406
80 95 -2.598136483867492
80 98 5.169550395360503E-1
81 78 -3.6055557898238817
81 81 2.392326640215066E1
81 84 -7.247515028961374
81 90 3.0119104004853625E-1
81 93 -3.823947216762406
81 96 -2.598136483867492
81 99 5.169550395360503E-1
82 79 -7.247515028961487
82 82 4.993840375809576E1
82 91 1.3909570038822636E1
82 97 -6.630567144768776
82 903 -9.353718731459111E-1
82 911 -2.593049363831831E1
82 917 -2.730619869390541
83 80 -7.247515028961487
83 83 4.993840375809576E1
83 92 1.3909570038822636E1
83 98 -6.630567144768776
83 904 -9.353718731459111E-1
83 912 -2.593049363831831E1
83 918 -2.730619869390541
84 81 -7.247515028961487
84 84 4.993840375809576E1
84 93 1.3909570038822636E1
84 99 -6.630567144768776
84 905 -9.353718731459111E-1
84 913 -2.593049363831831E1
84 919 -2.730619869390541
85 76 -2.4159901318200752E1
85 85 1.2930785216757266E2
85 88 2.0451081472116215
85 94 2.492040545109439E1
85 100 6.670844322064589
85 103 1.266647630575639E1
85 109 -2.3453620713890547E1
85 138 -7.751889896695701
85 147 3.8319941411620277
85 155 1.6559765034152036
86 77 -2.4159901318200752E1
86 86 1.2930785216757266E2
86 89 2.0451081472116215
86 95 2.492040545109439E1
86 101 6.670844322064589
86 104 1.266647630575639E1
86 139 -7.751889896695701
86 148 3.8319941411620277
86 156 1.6559765034152036
86 229 -2.3453620713890547E1
87 78 -2.4159901318200752E1
87 87 1.2930785216757266E2
87 90 2.0451081472116215
87 96 2.492040545109439E1
87 102 6.670844322064589
87 105 1.266647630575639E1
87 140 -7.751889896695701
87 149 3.8319941411620277
87 157 1.6559765034152036
87 230 -2.3453620713890547E1
88 76 -6.212776215531619E-1
88 79 3.0119104004853625E-1
88 85 2.045108147211849
88 88 1.3774474766069955E2
88 91 4.315567250274469
88 94 -2.2972867587881463
88 97 2.5029115359021976E1
88 103 3.1630723102350515
88 106 -1.6862502311802018E1
88 110 2.0317401640286064E1
89 77 -6.212776215531619E-1
89 80 3.0119104004853625E-1
89 86 2.045108147211849
89 89 1.3774474766069955E2
89 92 4.315567250274469
89 95 -2.2972867587881463
89 98 2.5029115359021976E1
89 104 3.1630723102350515
89 107 -1.6862502311802018E1
89 111 2.0317401640286064E1
90 67 -1.6862502311802018E1
90 74 2.0317401640286064E1
90 78 -6.212776215531619E-1
90 81 3.0119104004853625E-1
90 87 2.045108147211849
90 90 1.3774474766069955E2
90 93 4.315567250274469
90 96 -2.2972867587881463
90 99 2.5029115359021976E1
90 105 3.1630723102350515
91 79 -3.823947216762349
91 82 1.3909570038822693E1
91 88 4.315567250273958
91 91 1.1511429244092756E2
91 97 -1.491880096035917
91 106 -4.593411187161735
91 110 -4.31236466681642
91 911 -4.8777595596270515
91 931 4.636614576597395
92 80 -3.823947216762349
92 83 1.3909570038822693E1
92 89 4.315567250273958
92 92 1.1511429244092756E2
92 98 -1.491880096035917
92 107 -4.593411187161735
92 108 4.636614576597395
92 111 -4.31236466681642
92 912 -4.8777595596270515
93 67 -4.593411187161735
93 68 4.636614576597395
93 74 -4.31236466681642
93 81 -3.823947216762349
93 84 1.3909570038822693E1
93 90 4.315567250273958
93 93 1.1511429244092756E2
93 99 -1.491880096035917
93 913 -4.8777595596270515
94 1 1.6572469122404623E1
94 36 6.455609943046422
94 75 3.0746625622404196
94 76 -6.299546068428128
94 79 -2.5981364838673784
94 85 2.4920405451094787E1
94 88 -2.2972867587884296
94 94 1.4477655421735534E2
94 97 1.3938481799648947
94 100 6.533952135407141
94 103 2.6612677148133915E1
94 109 -5.63813709677509
94 110 -1.5856307474347972E1
95 26 1.6572469122404623E1
95 37 6.455609943046422
95 77 -6.299546068428128
95 80 -2.5981364838673784
95 86 2.4920405451094787E1
95 89 -2.2972867587884296
95 95 1.4477655421735534E2
95 98 1.3938481799648947
95 101 6.533952135407141
95 104 2.6612677148133915E1
95 111 -1.5856307474347972E1
95 202 3.0746625622404196
95 229 -5.63813709677509
96 2 1.6572469122404623E1
96 38 6.455609943046422
96 74 -1.5856307474347972E1
96 78 -6.299546068428128
96 81 -2.5981364838673784
96 87 2.4920405451094787E1
96 90 -2.2972867587884296
96 96 1.4477655421735534E2
96 99 1.3938481799648947
96 102 6.533952135407141
96 105 2.6612677148133915E1
96 203 3.0746625622404196
96 230 -5.63813709677509
97 36 -1.0489318592206587E-2
97 39 5.397306330906922
97 79 5.169550395360005E-1
97 82 -6.630567144768804
97 88 2.5029115359022086E1
97 91 -1.4918800960357999
97 94 1.393848179964781
97 97 1.9363871637001986E2
97 110 6.404469161242616E-1
97 911 1.4554767997341692E1
97 917 -2.431733005844879E1
97 931 -1.1189567579853588
97 959 2.6906801063220264E1
98 37 -1.0489318592206587E-2
98 40 5.397306330906922
98 80 5.169550395360005E-1
98 83 -6.630567144768804
98 89 2.5029115359022086E1
98 92 -1.4918800960357999
98 95 1.393848179964781
98 98 1.9363871637001986E2
98 108 -1.1189567579853588
98 111 6.404469161242616E-1
98 912 1.4554767997341692E1
98 918 -2.431733005844879E1
98 960 2.6906801063220264E1
99 38 -1.0489318592206587E-2
99 41 5.397306330906922
99 68 -1.1189567579853588
99 74 6.404469161242616E-1
99 81 5.169550395360005E-1
99 84 -6.630567144768804
99 90 2.5029115359022086E1
99 93 -1.4918800960357999
99 96 1.393848179964781
99 99 1.9363871637001986E2
99 913 1.4554767997341692E1
99 919 -2.431733005844879E1
99 932 2.6906801063220264E1
100 75 7.189136748661042
100 76 1.6015360077917933
100 85 6.6708443220646885
100 94 6.533952135407084
100 100 7.445282440348798E1
100 109 -9.913681437311837
100 138 3.470864569589878
100 147 3.0820164452976258
100 155 9.219853992928748
100 200 1.0317130804321827E1
101 77 1.6015360077917933
101 86 6.6708443220646885
101 95 6.533952135407084
101 101 7.445282440348798E1
101 139 3.470864569589878
101 148 3.0820164452976258
101 156 9.219853992928748
101 201 1.0317130804321827E1
101 202 7.189136748661042
101 229 -9.913681437311837
102 78 1.6015360077917933
102 87 6.6708443220646885
102 96 6.533952135407084
102 102 7.445282440348798E1
102 137 1.0317130804321827E1
102 140 3.470864569589878
102 149 3.0820164452976258
102 157 9.219853992928748
102 203 7.189136748661042
102 230 -9.913681437311837
103 55 7.207596624669463E-1
103 85 1.2666476305756134E1
103 88 3.16307231023346
103 94 2.661267714813408E1
103 103 1.1349459997597305E2
103 106 1.7149965725072462
103 109 -4.250946285642931E1
103 110 2.8388018487698183E1
103 141 -1.346470884640754E1
103 155 2.1750307603738264E1
104 56 7.207596624669463E-1
104 86 1.2666476305756134E1
104 89 3.16307231023346
104 95 2.661267714813408E1
104 104 1.1349459997597305E2
104 107 1.7149965725072462
104 111 2.8388018487698183E1
104 142 -1.346470884640754E1
104 156 2.1750307603738264E1
104 229 -4.250946285642931E1
105 57 7.207596624669463E-1
105 67 1.7149965725072462
105 74 2.8388018487698183E1
105 87 1.2666476305756134E1
105 90 3.16307231023346
105 96 2.661267714813408E1
105 105 1.1349459997597305E2
105 143 -1.346470884640754E1
105 157 2.1750307603738264E1
105 230 -4.250946285642931E1
106 52 -1.2078820927688014E1
106 55 -5.8528857252061925
106 88 -1.686250231180162E1
106 91 -4.593411187162019
106 103 1.7149965725074736
106 106 8.768009782309497E1
106 110 -7.002341968724071
106 931 1.8029460318240602E1
107 53 -1.2078820927688014E1
107 56 -5.8528857252061925
107 89 -1.686250231180162E1
107 92 -4.593411187162019
107 104 1.7149965725074736
107 107 8.768009782309497E1
107 108 1.8029460318240602E1
107 111 -7.002341968724071
108 53 -3.0409994906038044E1
108 92 4.636614576597907
108 98 -1.1189567579852522
108 107 1.8029460318240943E1
108 108 2.132204128071367E2
108 111 -3.2136613520529785E1
108 912 -2.7015437091943284E1
108 918 4.410723337383827E1
108 937 -2.267440179592028E1
108 956 -5.97735339901869E1
108 960 -2.2747892867052173E1
109 1 2.188008090741721E1
109 3 3.86131481527773E1
109 24 6.3881519819159166E1
109 55 1.5571648976920494E1
109 69 1.780052394756704E1
109 75 -1.706306624749503E1
109 85 -2.3453620713889922E1
109 94 -5.638137096775033
109 100 -9.91368143731269
109 103 -4.2509462856430275E1
109 109 5.581883888635602E2
109 110 -2.1453402515056574E1
109 125 4.256018776140773E1
109 128 -4.302139377568896E1
109 130 -3.846145966927399E1
109 141 1.6691444378036593
109 155 -3.553257646121122E1
109 158 2.425542065117571E1
109 177 -1.7149512213512608E1
109 185 1.888632766586743E1
109 200 -6.753153886921544E1
109 217 8.398817427691682
109 220 4.011781877147112E1
109 223 7.792240637250048E1
109 226 -6.48182325204549E1
110 1 3.1214765089852662E1
110 15 1.2717349455088945E1
110 17 -1.9899858376900266E2
110 22 3.970113987180928E1
110 24 -1.04701074076478E2
110 36 2.2462662943491893E1
110 39 -1.5062157582909835E1
110 52 1.8241593368004256
110 55 3.269285355362138E1
110 69 -1.6293044908652462E1
110 72 5.338984920452141E1
110 88 2.031740164028612E1
110 91 -4.31236466681591
110 94 -1.5856307474347986E1
110 97 6.40446916124148E-1
110 103 2.8388018487697835E1
110 106 -7.002341968724087
110 109 -2.1453402515056375E1
110 110 4.485160314550258E2
110 931 -3.213661352053045E1
110 959 5.606480566808054E1
111 26 3.1214765089852662E1
111 37 2.2462662943491893E1
111 40 -1.5062157582909835E1
111 46 1.2717349455088945E1
111 47 -1.9899858376900266E2
111 48 3.970113987180928E1
111 51 -1.04701074076478E2
111 53 1.8241593368004256
111 56 3.269285355362138E1
111 70 -1.6293044908652462E1
111 89 2.031740164028612E1
111 92 -4.31236466681591
111 95 -1.5856307474347986E1
111 98 6.40446916124148E-1
111 104 2.8388018487697835E1
111 107 -7.002341968724087
111 108 -3.213661352053045E1
111 111 4.485160314550258E2
111 229 -2.1453402515056375E1
111 956 5.338984920452141E1
111 960 5.606480566808054E1
112 112 1.7618526389470592E1
112 115 -9.122804891757074
112 118 -1.6431274797136677
112 122 1.446087549388491
112 125 9.372154796154957
112 129 1.482603279516386
112 131 -3.2102781860658443
112 150 1.4580166876237204
113 113 1.7618526389470592E1
113 116 -9.122804891757074
113 119 -1.6431274797136677
113 123 1.446087549388491
113 126 9.372154796154957
113 132 -3.2102781860658443
113 151 1.4580166876237204
113 206 1.482603279516386
114 114 1.7618526389470592E1
114 117 -9.122804891757074
114 120 -1.6431274797136677
114 121 1.4580166876237204
114 124 1.446087549388491
114 127 9.372154796154957
114 133 -3.2102781860658443
114 207 1.482603279516386
115 112 -9.122804891757044
115 115 3.364304714967097E2
115 118 -3.001450319038149E2
115 125 -2.428319766720995E1
115 130 -1.6803570783221715
115 131 -7.890375521092543
115 141 9.817164830539506
115 144 -1.9103816635172823E1
115 150 -3.5762677222648245
115 155 -6.956818911985847
115 158 -5.661091888920809
116 113 -9.122804891757044
116 116 3.364304714967097E2
116 119 -3.001450319038149E2
116 126 -2.428319766720995E1
116 132 -7.890375521092543
116 142 9.817164830539506
116 145 -1.9103816635172823E1
116 151 -3.5762677222648245
116 156 -6.956818911985847
116 159 -5.661091888920809
116 161 -1.6803570783221715
117 114 -9.122804891757044
117 117 3.364304714967097E2
117 120 -3.001450319038149E2
117 121 -3.5762677222648245
117 127 -2.428319766720995E1
117 133 -7.890375521092543
117 143 9.817164830539506
117 146 -1.9103816635172823E1
117 157 -6.956818911985847
117 160 -5.661091888920809
117 162 -1.6803570783221715
118 112 -1.6431274797136677
118 115 -3.001450319038148E2
118 118 3.549520593653798E2
118 122 -3.7794013894126195E1
118 125 -7.0681977152942554
118 130 2.9827280138472188
118 144 1.4461898485553851E1
119 113 -1.6431274797136677
119 116 -3.001450319038148E2
119 119 3.549520593653798E2
119 123 -3.7794013894126195E1
119 126 -7.0681977152942554
119 145 1.4461898485553851E1
119 161 2.9827280138472188
120 114 -1.6431274797136677
120 117 -3.001450319038148E2
120 120 3.549520593653798E2
120 124 -3.7794013894126195E1
120 127 -7.0681977152942554
120 146 1.4461898485553851E1
120 162 2.9827280138472188
121 114 1.4580166876236689
121 117 -3.576267722264699
121 121 6.874458921578457E1
121 133 -1.7657400122724848E1
121 136 2.809149452537696E-1
121 160 -4.883397381951293
121 213 4.037008390717183
121 225 5.918317625992138
122 112 1.4460875493884404
122 118 -3.779401389412621E1
122 122 4.014860142096499E1
122 125 3.4301565182692912
122 130 -7.994689011205292E-2
122 144 -2.7649098605920717
122 152 1.4586380399929832
123 113 1.4460875493884404
123 119 -3.779401389412621E1
123 123 4.014860142096499E1
123 126 3.4301565182692912
123 145 -2.7649098605920717
123 153 1.4586380399929832
123 161 -7.994689011205292E-2
124 114 1.4460875493884404
124 120 -3.779401389412621E1
124 124 4.014860142096499E1
124 127 3.4301565182692912
124 146 -2.7649098605920717
124 154 1.4586380399929832
124 162 -7.994689011205292E-2
125 109 4.2560187761407704E1
125 112 9.37215479615493
125 115 -2.4283197667209937E1
125 118 -7.068197715294248
125 122 3.430156518269304
125 125 3.310187485867137E2
125 128 -5.042290433066517
125 129 -2.6528792243112854E1
125 130 -5.222505217943414E1
125 131 -1.8783819275836375E1
125 155 1.9609119968717817E1
125 158 -8.805997874909733E1
125 220 -9.047564535043298
125 223 6.064478024486288E-1
126 113 9.37215479615493
126 116 -2.4283197667209937E1
126 119 -7.068197715294248
126 123 3.430156518269304
126 126 3.310187485867137E2
126 132 -1.8783819275836375E1
126 156 1.9609119968717817E1
126 159 -8.805997874909733E1
126 161 -5.222505217943414E1
126 204 -5.042290433066517
126 206 -2.6528792243112854E1
126 221 -9.047564535043298
126 224 6.064478024486288E-1
126 229 4.2560187761407704E1
127 114 9.37215479615493
127 117 -2.4283197667209937E1
127 120 -7.068197715294248
127 124 3.430156518269304
127 127 3.310187485867137E2
127 133 -1.8783819275836375E1
127 157 1.9609119968717817E1
127 160 -8.805997874909733E1
127 162 -5.222505217943414E1
127 205 -5.042290433066517
127 207 -2.6528792243112854E1
127 222 -9.047564535043298
127 225 6.064478024486288E-1
127 230 4.2560187761407704E1
128 3 3.2289700972029007
128 69 -2.321742834615799E1
128 109 -4.302139377568902E1
128 125 -5.04229043306624
128 128 1.1476177961355292E2
128 130 -1.049165903270573E1
128 185 -5.2017113397995466E1
128 220 -2.576290986479424E1
129 112 1.4826032795164314
129 125 -2.652879224311239E1
129 129 6.753538430675586E1
129 131 -4.42443974096795
129 208 1.1461327118520337E-1
129 220 8.351669884689897E-1
129 223 8.741459384514538E-3
130 69 1.313643182630104E1
130 109 -3.8461459669274E1
130 115 -1.680357078321957
130 118 2.9827280138472214
130 122 -7.994689011205301E-2
130 125 -5.222505217943426E1
130 128 -1.0491659032705833E1
130 130 8.257221146924162E1
130 141 -1.1677496967873022E1
130 144 -7.734857379205431
130 152 1.6503574517130692E-1
130 155 -6.0968917453013844
131 112 -3.2102781860658727
131 115 -7.890375521092628
131 125 -1.8783819275836144E1
131 129 -4.424439740967973
131 131 1.0457189343034835E2
131 150 -1.7657400122724415E1
131 158 -2.651077346087841
131 223 -2.0068314445687843E1
132 113 -3.2102781860658727
132 116 -7.890375521092628
132 126 -1.8783819275836144E1
132 132 1.0457189343034835E2
132 151 -1.7657400122724415E1
132 159 -2.651077346087841
132 206 -4.424439740967973
132 224 -2.0068314445687843E1
133 114 -3.2102781860658727
133 117 -7.890375521092628
133 121 -1.7657400122724415E1
133 127 -1.8783819275836144E1
133 133 1.0457189343034835E2
133 160 -2.651077346087841
133 207 -4.424439740967973
133 225 -2.0068314445687843E1
134 134 2.0447552039309183E1
134 138 -3.1544518848210146E-1
134 147 -2.7763981194603815E-1
134 150 2.8091494525374117E-1
134 158 -3.959088810820191
134 194 3.618954613031377
134 200 7.190418535270808
134 211 -1.822959562103705
135 135 2.0447552039309183E1
135 139 -3.1544518848210146E-1
135 148 -2.7763981194603815E-1
135 151 2.8091494525374117E-1
135 159 -3.959088810820191
135 195 3.618954613031377
135 201 7.190418535270808
135 212 -1.822959562103705
136 121 2.8091494525374117E-1
136 136 2.0447552039309183E1
136 137 7.190418535270808
136 140 -3.1544518848210146E-1
136 149 -2.7763981194603815E-1
136 160 -3.959088810820191
136 196 3.618954613031377
136 213 -1.822959562103705
137 102 1.0317130804321145E1
137 136 7.1904185352707515
137 137 3.327117630277087E2
137 140 -2.1859070303416104
137 149 1.7328655969573106
137 157 3.467567262595587E1
137 160 1.5570588854045127E1
137 196 4.455169250185804
137 203 2.102467904894624
137 213 -3.1861364818779833E1
137 219 -4.6996983673507906E1
137 225 3.7800785797897305
137 230 -6.753153886921538E1
138 76 -9.272200532366526E-2
138 85 -7.751889896695644
138 100 3.4708645695898497
138 134 -3.154451884820446E-1
138 138 3.8803968882625895E1
138 147 -2.9185942561021875E1
138 200 -2.1859070303416104
139 77 -9.272200532366526E-2
139 86 -7.751889896695644
139 101 3.4708645695898497
139 135 -3.154451884820446E-1
139 139 3.8803968882625895E1
139 148 -2.9185942561021875E1
139 201 -2.1859070303416104
140 78 -9.272200532366526E-2
140 87 -7.751889896695644
140 102 3.4708645695898497
140 136 -3.154451884820446E-1
140 137 -2.1859070303416104
140 140 3.8803968882625895E1
140 149 -2.9185942561021875E1
141 55 4.949469834933548
141 61 -6.609701743718982
141 69 1.5047713051079263E1
141 103 -1.3464708846407447E1
141 109 1.669144437803591
141 115 9.817164830539618
141 130 -1.1677496967873063E1
141 141 3.050310672071123E2
141 144 -1.9661957851031704E2
141 155 -3.21403751371607E1
142 56 4.949469834933548
142 62 -6.609701743718982
142 70 1.5047713051079263E1
142 104 -1.3464708846407447E1
142 116 9.817164830539618
142 142 3.050310672071123E2
142 145 -1.9661957851031704E2
142 156 -3.21403751371607E1
142 161 -1.1677496967873063E1
142 229 1.669144437803591
143 57 4.949469834933548
143 63 -6.609701743718982
143 71 1.5047713051079263E1
143 105 -1.3464708846407447E1
143 117 9.817164830539618
143 143 3.050310672071123E2
143 146 -1.9661957851031704E2
143 157 -3.21403751371607E1
143 162 -1.1677496967873063E1
143 230 1.669144437803591
144 61 6.701124187210222
144 69 -4.941913092679499
144 115 -1.910381663517276E1
144 118 1.4461898485553988E1
144 122 -2.7649098605921427
144 130 -7.734857379205364
144 141 -1.9661957851031698E2
144 144 1.9954209261020284E2
144 152 -1.1413283994550316E1
145 62 6.701124187210222
145 70 -4.941913092679499
145 116 -1.910381663517276E1
145 119 1.4461898485553988E1
145 123 -2.7649098605921427
145 142 -1.9661957851031698E2
145 145 1.9954209261020284E2
145 153 -1.1413283994550316E1
145 161 -7.734857379205364
146 63 6.701124187210222
146 71 -4.941913092679499
146 117 -1.910381663517276E1
146 120 1.4461898485553988E1
146 124 -2.7649098605921427
146 143 -1.9661957851031698E2
146 146 1.9954209261020284E2
146 154 -1.1413283994550316E1
146 162 -7.734857379205364
147 85 3.8319941411621414
147 100 3.0820164452975547
147 134 -2.776398119464645E-1
147 138 -2.9185942561022102E1
147 147 4.253058272872045E1
147 155 6.671854572567213E-1
147 158 -3.7091394737115166
147 200 1.7328655969572822
148 86 3.8319941411621414
148 101 3.0820164452975547
148 135 -2.776398119464645E-1
148 139 -2.9185942561022102E1
148 148 4.253058272872045E1
148 156 6.671854572567213E-1
148 159 -3.7091394737115166
148 201 1.7328655969572822
149 87 3.8319941411621414
149 102 3.0820164452975547
149 136 -2.776398119464645E-1
149 137 1.7328655969572822
149 140 -2.9185942561022102E1
149 149 4.253058272872045E1
149 157 6.671854572567213E-1
149 160 -3.7091394737115166
150 112 1.4580166876236689
150 115 -3.576267722264699
150 131 -1.7657400122724848E1
150 134 2.809149452537696E-1
150 150 6.874458921578457E1
150 158 -4.883397381951293
150 211 4.037008390717183
150 223 5.918317625992138
151 113 1.4580166876236689
151 116 -3.576267722264699
151 132 -1.7657400122724848E1
151 135 2.809149452537696E-1
151 151 6.874458921578457E1
151 159 -4.883397381951293
151 212 4.037008390717183
151 224 5.918317625992138
152 61 -5.098039780481282
152 64 4.750835288701287
152 69 -1.9338447286693956
152 122 1.458638039993053
152 130 1.6503574517131048E-1
152 144 -1.1413283994550373E1
152 152 2.082818033944414E1
153 62 -5.098039780481282
153 65 4.750835288701287
153 70 -1.9338447286693956
153 123 1.458638039993053
153 145 -1.1413283994550373E1
153 153 2.082818033944414E1
153 161 1.6503574517131048E-1
154 63 -5.098039780481282
154 66 4.750835288701287
154 71 -1.9338447286693956
154 124 1.458638039993053
154 146 -1.1413283994550373E1
154 154 2.082818033944414E1
154 162 1.6503574517131048E-1
155 85 1.655976503415161
155 100 9.219853992928833
155 103 2.1750307603736843E1
155 109 -3.553257646121068E1
155 115 -6.956818911985833
155 125 1.9609119968717703E1
155 130 -6.096891745301807
155 141 -3.214037513716096E1
155 147 6.671854572565366E-1
155 155 1.9379346802323278E2
155 158 -4.1012368495302056E1
155 200 3.46756726259559E1
156 86 1.655976503415161
156 101 9.219853992928833
156 104 2.1750307603736843E1
156 116 -6.956818911985833
156 126 1.9609119968717703E1
156 142 -3.214037513716096E1
156 148 6.671854572565366E-1
156 156 1.9379346802323278E2
156 159 -4.1012368495302056E1
156 161 -6.096891745301807
156 201 3.46756726259559E1
156 229 -3.553257646121068E1
157 87 1.655976503415161
157 102 9.219853992928833
157 105 2.1750307603736843E1
157 117 -6.956818911985833
157 127 1.9609119968717703E1
157 137 3.46756726259559E1
157 143 -3.214037513716096E1
157 149 6.671854572565366E-1
157 157 1.9379346802323278E2
157 160 -4.1012368495302056E1
157 162 -6.096891745301807
157 230 -3.553257646121068E1
158 109 2.425542065117611E1
158 115 -5.6610918889209225
158 125 -8.805997874909755E1
158 131 -2.651077346088017
158 134 -3.9590888108201625
158 147 -3.709139473711332
158 150 -4.883397381951287
158 155 -4.101236849530031E1
158 158 3.885860153228989E2
158 200 1.5570588854044782E1
158 211 1.7163014029587224E1
158 223 3.819472235438207E1
159 116 -5.6610918889209225
159 126 -8.805997874909755E1
159 132 -2.651077346088017
159 135 -3.9590888108201625
159 148 -3.709139473711332
159 151 -4.883397381951287
159 156 -4.101236849530031E1
159 159 3.885860153228989E2
159 201 1.5570588854044782E1
159 212 1.7163014029587224E1
159 224 3.819472235438207E1
159 229 2.425542065117611E1
160 117 -5.6610918889209225
160 121 -4.883397381951287
160 127 -8.805997874909755E1
160 133 -2.651077346088017
160 136 -3.9590888108201625
160 137 1.5570588854044782E1
160 149 -3.709139473711332
160 157 -4.101236849530031E1
160 160 3.885860153228989E2
160 213 1.7163014029587224E1
160 225 3.819472235438207E1
160 230 2.425542065117611E1
161 70 1.313643182630104E1
161 116 -1.680357078321957
161 119 2.9827280138472214
161 123 -7.994689011205301E-2
161 126 -5.222505217943426E1
161 142 -1.1677496967873022E1
161 145 -7.734857379205431
161 153 1.6503574517130692E-1
161 156 -6.0968917453013844
161 161 8.257221146924162E1
161 204 -1.0491659032705833E1
161 229 -3.8461459669274E1
162 71 1.313643182630104E1
162 117 -1.680357078321957
162 120 2.9827280138472214
162 124 -7.994689011205301E-2
162 127 -5.222505217943426E1
162 143 -1.1677496967873022E1
162 146 -7.734857379205431
162 154 1.6503574517130692E-1
162 157 -6.0968917453013844
162 162 8.257221146924162E1
162 205 -1.0491659032705833E1
162 230 -3.8461459669274E1
163 163 1.8046155666654275E2
163 166 -2.5344009183771803
163 171 -5.5272940160055725E1
163 174 -9.644771553916627
163 177 4.05585441537221E1
163 182 -4.132399560895507E1
163 197 2.0416974212645272E1
164 164 1.8046155666654275E2
164 172 -5.5272940160055725E1
164 175 -9.644771553916627
164 178 4.05585441537221E1
164 183 -4.132399560895507E1
164 198 2.0416974212645272E1
164 342 -2.5344009183771803
165 165 1.8046155666654275E2
165 173 -5.5272940160055725E1
165 176 -9.644771553916627
165 179 4.05585441537221E1
165 184 -4.132399560895507E1
165 199 2.0416974212645272E1
165 343 -2.5344009183771803
166 163 -2.5344009183772656
166 166 3.981924460710897E1
166 174 1.3675555632018712E1
166 182 -1.1956984254328866E1
166 344 -6.909429748329404
166 353 -3.433364202543517E1
166 371 -6.4968060528261375
166 377 -3.768650636716515E-1
167 6 2.050107106128485E1
167 46 -1.1330485477198959E1
167 51 -1.0989457799042223E2
167 70 -7.705618488030858E1
167 167 2.3533164176530366E2
167 186 -9.559788213300696E1
167 189 -2.6478233022087114E1
167 204 3.228970097203371
167 229 3.861314815277766E1
168 168 8.372110443927768E1
168 171 -1.8725083712391378E1
168 174 -1.6259674750222423E1
168 185 5.24814660056246
168 191 1.2911573359880762E1
168 208 -5.605924995898132
168 226 7.555156784633255E-5
168 347 1.0317899642977033
169 169 8.372110443927768E1
169 172 -1.8725083712391378E1
169 175 -1.6259674750222423E1
169 186 5.24814660056246
169 192 1.2911573359880762E1
169 209 -5.605924995898132
169 227 7.555156784633255E-5
169 348 1.0317899642977033
170 170 8.372110443927768E1
170 173 -1.8725083712391378E1
170 176 -1.6259674750222423E1
170 187 5.24814660056246
170 193 1.2911573359880762E1
170 210 -5.605924995898132
170 228 7.555156784633255E-5
170 349 1.0317899642977033
171 163 -5.527294016005581E1
171 168 -1.872508371239118E1
171 171 1.695986991852489E2
171 174 -1.3281416089673144
171 177 -5.199094594316534
171 182 2.1484582296734743E1
171 185 2.3174854621767146E1
171 191 -3.7195968936521524E1
171 197 -2.163950859532926E1
171 214 2.766498290616616E1
171 226 -2.9175150363178645E1
172 164 -5.527294016005581E1
172 169 -1.872508371239118E1
172 172 1.695986991852489E2
172 175 -1.3281416089673144
172 178 -5.199094594316534
172 183 2.1484582296734743E1
172 186 2.3174854621767146E1
172 192 -3.7195968936521524E1
172 198 -2.163950859532926E1
172 215 2.766498290616616E1
172 227 -2.9175150363178645E1
173 165 -5.527294016005581E1
173 170 -1.872508371239118E1
173 173 1.695986991852489E2
173 176 -1.3281416089673144
173 179 -5.199094594316534
173 184 2.1484582296734743E1
173 187 2.3174854621767146E1
173 193 -3.7195968936521524E1
173 199 -2.163950859532926E1
173 216 2.766498290616616E1
173 228 -2.9175150363178645E1
174 163 -9.644771553916684
174 166 1.367555563201884E1
174 168 -1.6259674750222405E1
174 171 -1.328141608966888
174 174 1.5248833342422856E2
174 182 -3.187551684022857E1
174 191 -3.693200388369494E1
174 347 -1.1927963717435928
174 353 -1.0302109093387769E2
175 164 -9.644771553916684
175 169 -1.6259674750222405E1
175 172 -1.328141608966888
175 175 1.5248833342422856E2
175 183 -3.187551684022857E1
175 192 -3.693200388369494E1
175 342 1.367555563201884E1
175 348 -1.1927963717435928
175 354 -1.0302109093387769E2
176 165 -9.644771553916684
176 170 -1.6259674750222405E1
176 173 -1.328141608966888
176 176 1.5248833342422856E2
176 184 -3.187551684022857E1
176 193 -3.693200388369494E1
176 343 1.367555563201884E1
176 349 -1.1927963717435928
176 355 -1.0302109093387769E2
177 1 -2.0324333381562603E1
177 24 -6.391191645641311E1
177 75 -1.578772569731369E1
177 109 -1.7149512213513333E1
177 163 4.055854415372199E1
177 171 -5.199094594317103
177 177 7.468860817048036E2
177 180 4.6045301836715026E1
177 182 -5.5691989185980795
177 185 6.955520651033298E1
177 188 6.177216914278832E1
177 191 -1.001604183783169E1
177 197 -6.166929290917334
177 214 3.345447311285625
177 217 -5.855347784565099E1
177 226 7.90183830032264E1
178 26 -2.0324333381562603E1
178 32 4.6045301836715026E1
178 51 -6.391191645641311E1
178 164 4.055854415372199E1
178 172 -5.199094594317103
178 178 7.468860817048036E2
178 183 -5.5691989185980795
178 186 6.955520651033298E1
178 189 6.177216914278832E1
178 192 -1.001604183783169E1
178 198 -6.166929290917334
178 202 -1.578772569731369E1
178 215 3.345447311285625
178 218 -5.855347784565099E1
178 227 7.90183830032264E1
178 229 -1.7149512213513333E1
179 2 -2.0324333381562603E1
179 25 -6.391191645641311E1
179 165 4.055854415372199E1
179 173 -5.199094594317103
179 179 7.468860817048036E2
179 181 4.6045301836715026E1
179 184 -5.5691989185980795
179 187 6.955520651033298E1
179 190 6.177216914278832E1
179 193 -1.001604183783169E1
179 199 -6.166929290917334
179 203 -1.578772569731369E1
179 216 3.345447311285625
179 219 -5.855347784565099E1
179 228 7.90183830032264E1
179 230 -1.7149512213513333E1
180 1 1.6591618439983584E1
180 24 -2.5278633516416363E1
180 27 9.504794190685182
180 177 4.6045301836715616E1
180 180 4.626987755636913E2
180 182 -6.066010456262021E1
180 188 5.580663278594615E1
180 282 3.4865845311685
180 306 -1.1623118744587705E2
180 381 1.4211551876907215E1
181 2 1.6591618439983584E1
181 25 -2.5278633516416363E1
181 29 9.504794190685182
181 50 -1.1623118744587705E2
181 179 4.6045301836715616E1
181 181 4.626987755636913E2
181 184 -6.066010456262021E1
181 190 5.580663278594615E1
181 284 3.4865845311685
181 382 1.4211551876907215E1
182 163 -4.132399560895513E1
182 166 -1.195698425432837E1
182 171 2.1484582296734747E1
182 174 -3.1875516840228865E1
182 177 -5.569198918597853
182 180 -6.066010456261981E1
182 182 3.891741299882899E2
182 188 9.174333562037786E1
182 191 -4.326780285531826E1
182 353 7.762333332019074E1
182 377 -3.939685644412516E1
182 381 -2.8281710796393213E1
183 32 -6.066010456261981E1
183 164 -4.132399560895513E1
183 172 2.1484582296734747E1
183 175 -3.1875516840228865E1
183 178 -5.569198918597853
183 183 3.891741299882899E2
183 189 9.174333562037786E1
183 192 -4.326780285531826E1
183 342 -1.195698425432837E1
183 354 7.762333332019074E1
183 359 -3.939685644412516E1
183 364 -2.8281710796393213E1
184 165 -4.132399560895513E1
184 173 2.1484582296734747E1
184 176 -3.1875516840228865E1
184 179 -5.569198918597853
184 181 -6.066010456261981E1
184 184 3.891741299882899E2
184 190 9.174333562037786E1
184 193 -4.326780285531826E1
184 343 -1.195698425432837E1
184 355 7.762333332019074E1
184 360 -3.939685644412516E1
184 382 -2.8281710796393213E1
185 3 -9.559788213300483E1
185 24 6.866594221174813E1
185 109 1.8886327665866684E1
185 128 -5.2017113397995494E1
185 168 5.248146600562183
185 171 2.3174854621767267E1
185 177 6.955520651033335E1
185 185 4.949170450503919E2
185 188 -5.498243823610858E1
185 191 -3.4744447344717436E1
185 208 -1.8828046804169032
185 220 1.9085581706765822E1
185 226 2.9908712082534567E1
186 51 6.866594221174813E1
186 167 -9.559788213300483E1
186 169 5.248146600562183
186 172 2.3174854621767267E1
186 178 6.955520651033335E1
186 186 4.949170450503919E2
186 189 -5.498243823610858E1
186 192 -3.4744447344717436E1
186 204 -5.2017113397995494E1
186 209 -1.8828046804169032
186 221 1.9085581706765822E1
186 227 2.9908712082534567E1
186 229 1.8886327665866684E1
187 4 -9.559788213300483E1
187 25 6.866594221174813E1
187 170 5.248146600562183
187 173 2.3174854621767267E1
187 179 6.955520651033335E1
187 187 4.949170450503919E2
187 190 -5.498243823610858E1
187 193 -3.4744447344717436E1
187 205 -5.2017113397995494E1
187 210 -1.8828046804169032
187 222 1.9085581706765822E1
187 228 2.9908712082534567E1
187 230 1.8886327665866684E1
188 3 -2.6478233022087373E1
188 5 -6.442149825667333E1
188 24 -2.506651914501468E1
188 177 6.1772169142787426E1
188 180 5.5806632785946775E1
188 182 9.17433356203786E1
188 185 -5.498243823610911E1
188 188 4.7654491619743885E2
188 191 -1.2405721405146964E2
188 297 -1.5659962420509144
188 306 -4.503976521460274E1
188 381 -2.5109894108192887
188 390 -1.323768191243383E2
189 6 -6.442149825667333E1
189 32 5.5806632785946775E1
189 49 -4.503976521460274E1
189 51 -2.506651914501468E1
189 167 -2.6478233022087373E1
189 178 6.1772169142787426E1
189 183 9.17433356203786E1
189 186 -5.498243823610911E1
189 189 4.7654491619743885E2
189 192 -1.2405721405146964E2
189 364 -2.5109894108192887
189 365 -1.5659962420509144
189 369 -1.323768191243383E2
190 4 -2.6478233022087373E1
190 7 -6.442149825667333E1
190 25 -2.506651914501468E1
190 50 -4.503976521460274E1
190 179 6.1772169142787426E1
190 181 5.5806632785946775E1
190 184 9.17433356203786E1
190 187 -5.498243823610911E1
190 190 4.7654491619743885E2
190 193 -1.2405721405146964E2
190 298 -1.5659962420509144
190 382 -2.5109894108192887
190 391 -1.323768191243383E2
191 168 1.2911573359881324E1
191 171 -3.719596893652107E1
191 174 -3.6932003883696055E1
191 177 -1.0016041837830496E1
191 182 -4.326780285531936E1
191 185 -3.474444734471636E1
191 188 -1.2405721405147074E2
191 191 5.537216513814169E2
191 347 3.9551193621742824
191 353 -5.0942339301569426E1
191 377 5.958750073289134E1
191 381 2.950709556401088E1
191 384 -5.809804001047004E1
191 390 1.2704218952387201E1
192 169 1.2911573359881324E1
192 172 -3.719596893652107E1
192 175 -3.6932003883696055E1
192 178 -1.0016041837830496E1
192 183 -4.326780285531936E1
192 186 -3.474444734471636E1
192 189 -1.2405721405147074E2
192 192 5.537216513814169E2
192 348 3.9551193621742824
192 354 -5.0942339301569426E1
192 359 5.958750073289134E1
192 364 2.950709556401088E1
192 366 -5.809804001047004E1
192 369 1.2704218952387201E1
193 170 1.2911573359881324E1
193 173 -3.719596893652107E1
193 176 -3.6932003883696055E1
193 179 -1.0016041837830496E1
193 184 -4.326780285531936E1
193 187 -3.474444734471636E1
193 190 -1.2405721405147074E2
193 193 5.537216513814169E2
193 349 3.9551193621742824
193 355 -5.0942339301569426E1
193 360 5.958750073289134E1
193 382 2.950709556401088E1
193 385 -5.809804001047004E1
193 391 1.2704218952387201E1
194 134 3.6189546130313914
194 194 3.357880941422076E1
194 197 6.084270426097547E-1
194 200 4.455169250185804
194 211 -3.0728963049042875E1
194 214 2.3929518078532936
194 217 -7.822915108300322
195 135 3.6189546130313914
195 195 3.357880941422076E1
195 198 6.084270426097547E-1
195 201 4.455169250185804
195 212 -3.0728963049042875E1
195 215 2.3929518078532936
195 218 -7.822915108300322
196 136 3.6189546130313914
196 137 4.455169250185804
196 196 3.357880941422076E1
196 199 6.084270426097547E-1
196 213 -3.0728963049042875E1
196 216 2.3929518078532936
196 219 -7.822915108300322
197 163 2.0416974212645357E1
197 171 -2.1639508595329403E1
197 177 -6.166929290917321
197 194 6.084270426098115E-1
197 197 8.309196894351692E1
197 214 -7.949285585130724
197 217 2.0147773736793425E1
198 164 2.0416974212645357E1
198 172 -2.1639508595329403E1
198 178 -6.166929290917321
198 195 6.084270426098115E-1
198 198 8.309196894351692E1
198 215 -7.949285585130724
198 218 2.0147773736793425E1
199 165 2.0416974212645357E1
199 173 -2.1639508595329403E1
199 179 -6.166929290917321
199 196 6.084270426098115E-1
199 199 8.309196894351692E1
199 216 -7.949285585130724
199 219 2.0147773736793425E1
200 75 2.102467904894624
200 100 1.0317130804321145E1
200 109 -6.753153886921538E1
200 134 7.1904185352707515
200 138 -2.1859070303416104
200 147 1.7328655969573106
200 155 3.467567262595587E1
200 158 1.5570588854045127E1
200 194 4.455169250185804
200 200 3.327117630277087E2
200 211 -3.1861364818779833E1
200 217 -4.6996983673507906E1
200 223 3.7800785797897305
201 101 1.0317130804321145E1
201 135 7.1904185352707515
201 139 -2.1859070303416104
201 148 1.7328655969573106
201 156 3.467567262595587E1
201 159 1.5570588854045127E1
201 195 4.455169250185804
201 201 3.327117630277087E2
201 202 2.102467904894624
201 212 -3.1861364818779833E1
201 218 -4.6996983673507906E1
201 224 3.7800785797897305
201 229 -6.753153886921538E1
202 26 -6.67803569559878
202 95 3.0746625622407606
202 101 7.189136748661042
202 178 -1.5787725697313832E1
202 201 2.102467904894688
202 202 5.790742235332598E1
202 218 4.455372113665646
202 229 -1.7063066247495044E1
203 2 -6.67803569559878
203 96 3.0746625622407606
203 102 7.189136748661042
203 137 2.102467904894688
203 179 -1.5787725697313832E1
203 203 5.790742235332598E1
203 219 4.455372113665646
203 230 -1.7063066247495044E1
204 70 -2.321742834615799E1
204 126 -5.04229043306624
204 161 -1.049165903270573E1
204 167 3.2289700972029007
204 186 -5.2017113397995466E1
204 204 1.1476177961355292E2
204 221 -2.576290986479424E1
204 229 -4.302139377568902E1
205 4 3.2289700972029007
205 71 -2.321742834615799E1
205 127 -5.04229043306624
205 162 -1.049165903270573E1
205 187 -5.2017113397995466E1
205 205 1.1476177961355292E2
205 222 -2.576290986479424E1
205 230 -4.302139377568902E1
206 113 1.4826032795164314
206 126 -2.652879224311239E1
206 132 -4.42443974096795
206 206 6.753538430675586E1
206 209 1.1461327118520337E-1
206 221 8.351669884689897E-1
206 224 8.741459384514538E-3
207 114 1.4826032795164314
207 127 -2.652879224311239E1
207 133 -4.42443974096795
207 207 6.753538430675586E1
207 210 1.1461327118520337E-1
207 222 8.351669884689897E-1
207 225 8.741459384514538E-3
208 129 1.1461327118521936E-1
208 168 -5.605924995898095
208 185 -1.882804680417056
208 208 4.2581629847920645E1
208 220 -9.809388003302702
208 223 9.823241016759185
208 226 -1.2101641524397627E1
209 169 -5.605924995898095
209 186 -1.882804680417056
209 206 1.1461327118521936E-1
209 209 4.2581629847920645E1
209 221 -9.809388003302702
209 224 9.823241016759185
209 227 -1.2101641524397627E1
210 170 -5.605924995898095
210 187 -1.882804680417056
210 207 1.1461327118521936E-1
210 210 4.2581629847920645E1
210 222 -9.809388003302702
210 225 9.823241016759185
210 228 -1.2101641524397627E1
211 134 -1.8229595621034491
211 150 4.03700839071702
211 158 1.716301402958764E1
211 194 -3.072896304904299E1
211 200 -3.1861364818779833E1
211 211 6.921888033000583E1
211 214 -4.327704259498269
211 217 9.025102289667188
211 223 -1.5850435745416334E1
212 135 -1.8229595621034491
212 151 4.03700839071702
212 159 1.716301402958764E1
212 195 -3.072896304904299E1
212 201 -3.1861364818779833E1
212 212 6.921888033000583E1
212 215 -4.327704259498269
212 218 9.025102289667188
212 224 -1.5850435745416334E1
213 121 4.03700839071702
213 136 -1.8229595621034491
213 137 -3.1861364818779833E1
213 160 1.716301402958764E1
213 196 -3.072896304904299E1
213 213 6.921888033000583E1
213 216 -4.327704259498269
213 219 9.025102289667188
213 225 -1.5850435745416334E1
214 171 2.7664982906165648E1
214 177 3.3454473112860796
214 194 2.3929518078531657
214 197 -7.949285585130724
214 211 -4.327704259498397
214 214 1.7511115721349645E2
214 217 -3.4067286875925504E1
214 223 -6.4742880660968165
214 226 -8.317798149598434E1
215 172 2.7664982906165648E1
215 178 3.3454473112860796
215 195 2.3929518078531657
215 198 -7.949285585130724
215 212 -4.327704259498397
215 215 1.7511115721349645E2
215 218 -3.4067286875925504E1
215 224 -6.4742880660968165
215 227 -8.317798149598434E1
216 173 2.7664982906165648E1
216 179 3.3454473112860796
216 196 2.3929518078531657
216 199 -7.949285585130724
216 213 -4.327704259498397
216 216 1.7511115721349645E2
216 219 -3.4067286875925504E1
216 225 -6.4742880660968165
216 228 -8.317798149598434E1
217 75 4.455372113664396
217 109 8.398817427691895
217 177 -5.855347784565102E1
217 194 -7.822915108300322
217 197 2.014777373679334E1
217 200 -4.699698367350805E1
217 211 9.025102289667188
217 214 -3.4067286875926285E1
217 217 1.973126630161142E2
217 223 6.685644051771305
217 226 -2.5249911035280498E1
218 178 -5.855347784565102E1
218 195 -7.822915108300322
218 198 2.014777373679334E1
218 201 -4.699698367350805E1
218 202 4.455372113664396
218 212 9.025102289667188
218 215 -3.4067286875926285E1
218 218 1.973126630161142E2
218 224 6.685644051771305
218 227 -2.5249911035280498E1
218 229 8.398817427691895
219 137 -4.699698367350805E1
219 179 -5.855347784565102E1
219 196 -7.822915108300322
219 199 2.014777373679334E1
219 203 4.455372113664396
219 213 9.025102289667188
219 216 -3.4067286875926285E1
219 219 1.973126630161142E2
219 225 6.685644051771305
219 228 -2.5249911035280498E1
219 230 8.398817427691895
220 109 4.011781877147125E1
220 125 -9.047564535043414
220 128 -2.5762909864793755E1
220 129 8.35166988469051E-1
220 185 1.908558170676591E1
220 208 -9.809388003302667
220 220 1.0656587883548808E2
220 223 2.815345784310258E1
220 226 -3.996310961992774E1
221 126 -9.047564535043414
221 186 1.908558170676591E1
221 204 -2.5762909864793755E1
221 206 8.35166988469051E-1
221 209 -9.809388003302667
221 221 1.0656587883548808E2
221 224 2.815345784310258E1
221 227 -3.996310961992774E1
221 229 4.011781877147125E1
222 127 -9.047564535043414
222 187 1.908558170676591E1
222 205 -2.5762909864793755E1
222 207 8.35166988469051E-1
222 210 -9.809388003302667
222 222 1.0656587883548808E2
222 225 2.815345784310258E1
222 228 -3.996310961992774E1
222 230 4.011781877147125E1
223 109 7.792240637250038E1
223 125 6.064478024486915E-1
223 129 8.741459384407957E-3
223 131 -2.006831444568757E1
223 150 5.9183176259920245
223 158 3.819472235438214E1
223 200 3.780078579789638
223 208 9.823241016759534
223 211 -1.5850435745416846E1
223 214 -6.474288066096731
223 217 6.68564405177144
223 220 2.815345784310236E1
223 223 2.5271704454140968E2
223 226 -1.0248528279721334E2
224 126 6.064478024486915E-1
224 132 -2.006831444568757E1
224 151 5.9183176259920245
224 159 3.819472235438214E1
224 201 3.780078579789638
224 206 8.741459384407957E-3
224 209 9.823241016759534
224 212 -1.5850435745416846E1
224 215 -6.474288066096731
224 218 6.68564405177144
224 221 2.815345784310236E1
224 224 2.5271704454140968E2
224 227 -1.0248528279721334E2
224 229 7.792240637250038E1
225 121 5.9183176259920245
225 127 6.064478024486915E-1
225 133 -2.006831444568757E1
225 137 3.780078579789638
225 160 3.819472235438214E1
225 207 8.741459384407957E-3
225 210 9.823241016759534
225 213 -1.5850435745416846E1
225 216 -6.474288066096731
225 219 6.68564405177144
225 222 2.815345784310236E1
225 225 2.5271704454140968E2
225 228 -1.0248528279721334E2
225 230 7.792240637250038E1
226 109 -6.481823252045483E1
226 168 7.555156787475426E-5
226 171 -2.91751503631791E1
226 177 7.901838300322538E1
226 185 2.9908712082536656E1
226 208 -1.2101641524397285E1
226 214 -8.31779814959848E1
226 217 -2.5249911035281002E1
226 220 -3.9963109619927735E1
226 223 -1.0248528279721333E2
226 226 4.4211999440107064E2
227 169 7.555156787475426E-5
227 172 -2.91751503631791E1
227 178 7.901838300322538E1
227 186 2.9908712082536656E1
227 209 -1.2101641524397285E1
227 215 -8.31779814959848E1
227 218 -2.5249911035281002E1
227 221 -3.9963109619927735E1
227 224 -1.0248528279721333E2
227 227 4.4211999440107064E2
227 229 -6.481823252045483E1
228 170 7.555156787475426E-5
228 173 -2.91751503631791E1
228 179 7.901838300322538E1
228 187 2.9908712082536656E1
228 210 -1.2101641524397285E1
228 216 -8.31779814959848E1
228 219 -2.5249911035281002E1
228 222 -3.9963109619927735E1
228 225 -1.0248528279721333E2
228 228 4.4211999440107064E2
228 230 -6.481823252045483E1
229 26 2.188008090741721E1
229 51 6.3881519819159166E1
229 56 1.5571648976920494E1
229 70 1.780052394756704E1
229 86 -2.3453620713889922E1
229 95 -5.638137096775033
229 101 -9.91368143731269
229 104 -4.2509462856430275E1
229 111 -2.1453402515056574E1
229 126 4.256018776140773E1
229 142 1.6691444378036593
229 156 -3.553257646121122E1
229 159 2.425542065117571E1
229 161 -3.846145966927399E1
229 167 3.86131481527773E1
229 178 -1.7149512213512608E1
229 186 1.888632766586743E1
229 201 -6.753153886921544E1
229 202 -1.706306624749503E1
229 204 -4.302139377568896E1
229 218 8.398817427691682
229 221 4.011781877147112E1
229 224 7.792240637250048E1
229 227 -6.48182325204549E1
229 229 5.581883888635602E2
230 2 2.188008090741721E1
230 4 3.86131481527773E1
230 25 6.3881519819159166E1
230 57 1.5571648976920494E1
230 71 1.780052394756704E1
230 74 -2.1453402515056574E1
230 87 -2.3453620713889922E1
230 96 -5.638137096775033
230 102 -9.91368143731269
230 105 -4.2509462856430275E1
230 127 4.256018776140773E1
230 137 -6.753153886921544E1
230 143 1.6691444378036593
230 157 -3.553257646121122E1
230 160 2.425542065117571E1
230 162 -3.846145966927399E1
230 179 -1.7149512213512608E1
230 187 1.888632766586743E1
230 203 -1.706306624749503E1
230 205 -4.302139377568896E1
230 219 8.398817427691682
230 222 4.011781877147112E1
230 225 7.792240637250048E1
230 228 -6.48182325204549E1
230 230 5.581883888635602E2
231 231 8.471446887765963E1
231 234 2.9353994666548147
231 241 -6.067789479100759E1
231 244 2.458957617008423
231 246 -2.2552926273550113E1
231 248 7.909210272331649
231 403 5.011791789341686
232 232 8.471446887765963E1
232 242 -6.067789479100759E1
232 251 2.9353994666548147
232 262 2.458957617008423
232 270 -2.2552926273550113E1
232 404 5.011791789341686
232 441 7.909210272331649
233 233 8.471446887765963E1
233 235 2.9353994666548147
233 243 -6.067789479100759E1
233 245 2.458957617008423
233 247 -2.2552926273550113E1
233 249 7.909210272331649
233 405 5.011791789341686
234 231 2.935399466654644
234 234 4.000573580462586E1
234 244 -6.738768734137011
234 246 -5.383297041252499E-1
234 252 4.05775108586127
234 263 -3.8309900262902374
234 271 -7.539157196784163
235 233 2.935399466654644
235 235 4.000573580462586E1
235 245 -6.738768734137011
235 247 -5.383297041252499E-1
235 254 4.05775108586127
235 265 -3.8309900262902374
235 273 -7.539157196784163
236 236 2.0765783662384615E2
236 239 -8.018387206762329
236 241 -1.3300937252653694E2
236 244 -7.14402732157633
236 246 -8.46355102099804
236 248 -2.256673668170143E1
236 383 -2.273843479819864E1
236 396 1.2683752199821466E1
236 406 1.015687529333512
236 442 -9.585958418219116
237 237 2.0765783662384615E2
237 242 -1.3300937252653694E2
237 255 -8.018387206762329
237 262 -7.14402732157633
237 270 -8.46355102099804
237 274 -2.273843479819864E1
237 374 1.2683752199821466E1
237 407 1.015687529333512
237 441 -2.256673668170143E1
237 443 -9.585958418219116
238 238 2.0765783662384615E2
238 240 -8.018387206762329
238 243 -1.3300937252653694E2
238 245 -7.14402732157633
238 247 -8.46355102099804
238 249 -2.256673668170143E1
238 250 -2.273843479819864E1
238 397 1.2683752199821466E1
238 408 1.015687529333512
238 444 -9.585958418219116
239 236 -8.0183872067636
239 239 2.644481749058864E2
239 244 -1.6003769804378544E2
239 246 -7.767960117379987E-1
239 256 8.65280640016907
239 263 -1.572945260831597E1
239 271 4.856173447467931
239 275 -5.9033082308340425E1
239 383 -1.1934235838781042E1
239 396 1.5795533700008079E1
240 238 -8.0183872067636
240 240 2.644481749058864E2
240 245 -1.6003769804378544E2
240 247 -7.767960117379987E-1
240 250 -1.1934235838781042E1
240 258 8.65280640016907
240 265 -1.572945260831597E1
240 273 4.856173447467931
240 277 -5.9033082308340425E1
240 397 1.5795533700008079E1
241 231 -6.067789479100804E1
241 236 -1.330093725265392E2
241 241 2.0849610402564986E2
241 244 2.1583331563535135
241 246 1.2043013594666942E1
241 248 -2.4366697263934327
241 403 -7.316333588908492
241 406 -5.092203610876275
241 409 2.551907722247222
242 232 -6.067789479100804E1
242 237 -1.330093725265392E2
242 242 2.0849610402564986E2
242 262 2.1583331563535135
242 270 1.2043013594666942E1
242 404 -7.316333588908492
242 407 -5.092203610876275
242 410 2.551907722247222
242 441 -2.4366697263934327
243 233 -6.067789479100804E1
243 238 -1.330093725265392E2
243 243 2.0849610402564986E2
243 245 2.1583331563535135
243 247 1.2043013594666942E1
243 249 -2.4366697263934327
243 405 -7.316333588908492
243 408 -5.092203610876275
243 411 2.551907722247222
244 231 2.4589576170087923
244 234 -6.738768734136784
244 236 -7.144027321576095
244 239 -1.6003769804378499E2
244 241 2.158333156352922
244 244 1.8902951663501653E2
244 246 4.269479486640605
244 263 8.638385497607075
244 271 -1.0629315757169497
245 233 2.4589576170087923
245 235 -6.738768734136784
245 238 -7.144027321576095
245 240 -1.6003769804378499E2
245 243 2.158333156352922
245 245 1.8902951663501653E2
245 247 4.269479486640605
245 265 8.638385497607075
245 273 -1.0629315757169497
246 231 -2.2552926273550092E1
246 234 -5.383297041256377E-1
246 236 -8.463551020997702
246 239 -7.767960117373399E-1
246 241 1.2043013594667048E1
246 244 4.269479486640636
246 246 1.964826907759968E2
246 248 -7.04319873763005
246 271 -6.650766031807876
246 275 -3.384814822144054E1
246 288 3.146897453002671E1
246 339 5.374161716262705
246 378 5.388893136687102
246 396 -2.879817214794856E1
247 233 -2.2552926273550092E1
247 235 -5.383297041256377E-1
247 238 -8.463551020997702
247 240 -7.767960117373399E-1
247 243 1.2043013594667048E1
247 245 4.269479486640636
247 247 1.964826907759968E2
247 249 -7.04319873763005
247 273 -6.650766031807876
247 277 -3.384814822144054E1
247 290 3.146897453002671E1
247 341 5.374161716262705
247 379 5.388893136687102
247 397 -2.879817214794856E1
248 231 7.909210272331734
248 236 -2.2566736681699602E1
248 241 -2.4366697263934327
248 246 -7.043198737629368
248 248 1.5632659997472308E2
248 378 6.579247605336164
248 380 5.0869614082311045
248 396 -4.4032579822596865E1
248 403 -6.449560149082888E-1
248 406 3.895674355779626
248 409 -7.332877200275879E-1
248 412 -3.4958853501434874E1
248 442 5.600292049460975E-1
249 233 7.909210272331734
249 238 -2.2566736681699602E1
249 243 -2.4366697263934327
249 247 -7.043198737629368
249 249 1.5632659997472308E2
249 363 5.0869614082311045
249 379 6.579247605336164
249 397 -4.4032579822596865E1
249 405 -6.449560149082888E-1
249 408 3.895674355779626
249 411 -7.332877200275879E-1
249 414 -3.4958853501434874E1
249 444 5.600292049460975E-1
250 238 -2.273843479819865E1
250 240 -1.1934235838781026E1
250 250 1.1518869938658467E2
250 277 1.0069572270281633E1
250 320 -2.5700404700656847E1
250 397 1.622781076726652E1
250 430 -1.036831001951551E1
250 444 -2.3984513651905095
251 232 2.935399466654644
251 251 4.000573580462586E1
251 253 4.05775108586127
251 262 -6.738768734137011
251 264 -3.8309900262902374
251 270 -5.383297041252499E-1
251 272 -7.539157196784163
252 234 4.0577510858606445
252 252 4.1021036078076804E1
252 263 -7.5094648303650615
252 266 -1.6557042853455584E1
252 271 -5.763573077200618
252 514 2.8087618549785276
252 535 9.271768779674062
253 251 4.0577510858606445
253 253 4.1021036078076804E1
253 264 -7.5094648303650615
253 267 -1.6557042853455584E1
253 272 -5.763573077200618
253 515 2.8087618549785276
253 536 9.271768779674062
254 235 4.0577510858606445
254 254 4.1021036078076804E1
254 265 -7.5094648303650615
254 268 -1.6557042853455584E1
254 273 -5.763573077200618
254 516 2.8087618549785276
254 537 9.271768779674062
255 237 -8.0183872067636
255 255 2.644481749058864E2
255 257 8.65280640016907
255 262 -1.6003769804378544E2
255 264 -1.572945260831597E1
255 270 -7.767960117379987E-1
255 272 4.856173447467931
255 274 -1.1934235838781042E1
255 276 -5.9033082308340425E1
255 374 1.5795533700008079E1
256 239 8.652806400169661
256 256 1.2450064301805408E2
256 259 1.6623208535607823E1
256 263 -5.2963517269422255E1
256 266 -2.0369346734910142E1
256 271 2.1496453531933923E-1
256 275 -3.377252090573505E1
256 321 7.09223483033098
256 339 -5.097279407748836E-1
257 255 8.652806400169661
257 257 1.2450064301805408E2
257 260 1.6623208535607823E1
257 264 -5.2963517269422255E1
257 267 -2.0369346734910142E1
257 272 2.1496453531933923E-1
257 276 -3.377252090573505E1
257 322 7.09223483033098
257 340 -5.097279407748836E-1
258 240 8.652806400169661
258 258 1.2450064301805408E2
258 261 1.6623208535607823E1
258 265 -5.2963517269422255E1
258 268 -2.0369346734910142E1
258 273 2.1496453531933923E-1
258 277 -3.377252090573505E1
258 323 7.09223483033098
258 341 -5.097279407748836E-1
259 256 1.662320853560805E1
259 259 1.277761272852566E2
259 266 -8.801635605458125E1
259 313 6.077460452409262E-1
259 321 -1.0489392821589561E1
259 339 -1.6942376372084595E1
259 521 -3.2237855021883526
259 524 -5.686477259494988
259 541 -2.814945813559862E1
259 548 2.8380924832830488
260 257 1.662320853560805E1
260 260 1.277761272852566E2
260 267 -8.801635605458125E1
260 314 6.077460452409262E-1
260 322 -1.0489392821589561E1
260 340 -1.6942376372084595E1
260 522 -3.2237855021883526
260 525 -5.686477259494988
260 542 -2.814945813559862E1
260 549 2.8380924832830488
261 258 1.662320853560805E1
261 261 1.277761272852566E2
261 268 -8.801635605458125E1
261 315 6.077460452409262E-1
261 323 -1.0489392821589561E1
261 341 -1.6942376372084595E1
261 523 -3.2237855021883526
261 526 -5.686477259494988
261 543 -2.814945813559862E1
261 550 2.8380924832830488
262 232 2.4589576170087923
262 237 -7.144027321576095
262 242 2.158333156352922
262 251 -6.738768734136784
262 255 -1.6003769804378499E2
262 262 1.8902951663501653E2
262 264 8.638385497607075
262 270 4.269479486640605
262 272 -1.0629315757169497
263 234 -3.830990026289953
263 239 -1.57294526083166E1
263 244 8.638385497607189
263 252 -7.5094648303644504
263 256 -5.2963517269423164E1
263 263 9.392591826862878E1
263 266 7.706540616634499E-1
263 271 -8.298700979377639
264 251 -3.830990026289953
264 253 -7.5094648303644504
264 255 -1.57294526083166E1
264 257 -5.2963517269423164E1
264 262 8.638385497607189
264 264 9.392591826862878E1
264 267 7.706540616634499E-1
264 272 -8.298700979377639
265 235 -3.830990026289953
265 240 -1.57294526083166E1
265 245 8.638385497607189
265 254 -7.5094648303644504
265 258 -5.2963517269423164E1
265 265 9.392591826862878E1
265 268 7.706540616634499E-1
265 273 -8.298700979377639
266 252 -1.655704285345496E1
266 256 -2.036934673491072E1
266 259 -8.801635605458137E1
266 263 7.706540616639046E-1
266 266 2.360994544574235E2
266 271 1.1793676704491793E1
266 339 2.226391244519121
266 514 -8.23559681778795
266 524 -1.5953424675552185E1
266 535 -2.1059229990669543E1
266 548 -1.8770978018759152E1
267 253 -1.655704285345496E1
267 257 -2.036934673491072E1
267 260 -8.801635605458137E1
267 264 7.706540616639046E-1
267 267 2.360994544574235E2
267 272 1.1793676704491793E1
267 340 2.226391244519121
267 515 -8.23559681778795
267 525 -1.5953424675552185E1
267 536 -2.1059229990669543E1
267 549 -1.8770978018759152E1
268 254 -1.655704285345496E1
268 258 -2.036934673491072E1
268 261 -8.801635605458137E1
268 265 7.706540616639046E-1
268 268 2.360994544574235E2
268 273 1.1793676704491793E1
268 341 2.226391244519121
268 516 -8.23559681778795
268 526 -1.5953424675552185E1
268 537 -2.1059229990669543E1
268 550 -1.8770978018759152E1
269 269 2.3331766947112558E2
269 274 -2.5700404700656726E1
269 276 -4.7749005196380715E1
269 308 -3.253318188594366E1
269 317 5.070545987352103
269 325 -6.465101065242156E1
269 333 -1.2813521840017595E1
269 374 2.3714911832033508E1
269 426 -4.598973224712834
269 429 -1.5199022038789E1
270 232 -2.2552926273550092E1
270 237 -8.463551020997702
270 242 1.2043013594667048E1
270 251 -5.383297041256377E-1
270 255 -7.767960117373399E-1
270 262 4.269479486640636
270 270 1.964826907759968E2
270 272 -6.650766031807876
270 276 -3.384814822144054E1
270 289 3.146897453002671E1
270 340 5.374161716262705
270 361 5.388893136687102
270 374 -2.879817214794856E1
270 441 -7.04319873763005
271 234 -7.53915719678372
271 239 4.856173447467775
271 244 -1.0629315757173954
271 246 -6.650766031807763
271 252 -5.763573077200618
271 256 2.149645353195666E-1
271 263 -8.298700979378026
271 266 1.179367670449131E1
271 271 1.4441742739557847E2
271 275 1.424528181448791E1
271 285 2.9024512994631255
271 288 -6.037023708674241E-1
271 339 -1.9432311078398513E1
271 535 -1.899709717694769
272 251 -7.53915719678372
272 253 -5.763573077200618
272 255 4.856173447467775
272 257 2.149645353195666E-1
272 262 -1.0629315757173954
272 264 -8.298700979378026
272 267 1.179367670449131E1
272 270 -6.650766031807763
272 272 1.4441742739557847E2
272 276 1.424528181448791E1
272 286 2.9024512994631255
272 289 -6.037023708674241E-1
272 340 -1.9432311078398513E1
272 536 -1.899709717694769
273 235 -7.53915719678372
273 240 4.856173447467775
273 245 -1.0629315757173954
273 247 -6.650766031807763
273 254 -5.763573077200618
273 258 2.149645353195666E-1
273 265 -8.298700979378026
273 268 1.179367670449131E1
273 273 1.4441742739557847E2
273 277 1.424528181448791E1
273 287 2.9024512994631255
273 290 -6.037023708674241E-1
273 341 -1.9432311078398513E1
273 537 -1.899709717694769
274 237 -2.273843479819865E1
274 255 -1.1934235838781026E1
274 269 -2.5700404700656847E1
274 274 1.1518869938658467E2
274 276 1.0069572270281633E1
274 374 1.622781076726652E1
274 429 -1.036831001951551E1
274 443 -2.3984513651905095
275 239 -5.903308230834183E1
275 246 -3.384814822143879E1
275 256 -3.377252090573431E1
275 271 1.424528181448703E1
275 275 4.835478563708567E2
275 316 -4.2802672417241666E1
275 319 -4.774900519637927E1
275 321 1.852484005983286E1
275 324 6.482825705261118E1
275 332 4.457482683847055E1
275 339 -1.255679867584799E1
275 383 1.0069572270280553E1
275 396 2.6388099455392933E1
276 255 -5.903308230834183E1
276 257 -3.377252090573431E1
276 269 -4.774900519637927E1
276 270 -3.384814822143879E1
276 272 1.424528181448703E1
276 274 1.0069572270280553E1
276 276 4.835478563708567E2
276 317 -4.2802672417241666E1
276 322 1.852484005983286E1
276 325 6.482825705261118E1
276 333 4.457482683847055E1
276 340 -1.255679867584799E1
276 374 2.6388099455392933E1
277 240 -5.903308230834183E1
277 247 -3.384814822143879E1
277 250 1.0069572270280553E1
277 258 -3.377252090573431E1
277 273 1.424528181448703E1
277 277 4.835478563708567E2
277 318 -4.2802672417241666E1
277 320 -4.774900519637927E1
277 323 1.852484005983286E1
277 326 6.482825705261118E1
277 334 4.457482683847055E1
277 341 -1.255679867584799E1
277 397 2.6388099455392933E1
278 22 1.852841625980949E1
278 27 4.623194559538831
278 31 2.9563197764069145
278 33 -1.6222602982716936E1
278 42 4.326779124116772
278 278 1.1706776689261349E2
278 282 -1.1064327300682912E1
278 291 2.1551577521565815
278 300 -7.558349965939001
278 306 2.6625820326094377E1
279 11 4.326779124116772
279 23 1.852841625980949E1
279 29 4.623194559538831
279 35 -1.6222602982716936E1
279 50 2.6625820326094377E1
279 279 1.1706776689261349E2
279 280 2.9563197764069145
279 284 -1.1064327300682912E1
279 293 2.1551577521565815
279 302 -7.558349965939001
280 11 1.8033182754637902E1
280 279 2.956319776407227
280 280 1.0239658769987466E2
280 287 3.052106550848684
280 293 1.8803078440758938
280 302 -9.301245260939673
280 554 6.82336492119245
280 569 6.637222085678573
280 585 -1.7370626280149196E1
281 7 1.0266819475107559E1
281 14 -1.6620384980638413E1
281 21 -5.181378546655171E1
281 23 4.141456486146193
281 50 2.3097902334802882E1
281 281 1.0926618631089518E2
281 298 -5.398991393048046E1
281 299 -9.93881392555721
281 302 -3.105105885750325E1
281 561 1.5491716224287183E1
282 27 2.9983142246954984
282 180 3.4865845311684858
282 278 -1.106432730068294E1
282 282 1.6987982473070946E2
282 291 7.337916052689621
282 294 2.249984019761021
282 300 2.1393416608117146E1
282 303 6.8895565153184535
282 306 -4.4854297530215106E1
282 381 -2.9020066911760324E1
283 28 2.9983142246954984
283 30 -1.106432730068294E1
283 32 3.4865845311684858
283 49 -4.4854297530215106E1
283 283 1.6987982473070946E2
283 292 7.337916052689621
283 295 2.249984019761021
283 301 2.1393416608117146E1
283 304 6.8895565153184535
283 364 -2.9020066911760324E1
284 29 2.9983142246954984
284 50 -4.4854297530215106E1
284 181 3.4865845311684858
284 279 -1.106432730068294E1
284 284 1.6987982473070946E2
284 293 7.337916052689621
284 296 2.249984019761021
284 302 2.1393416608117146E1
284 305 6.8895565153184535
284 382 -2.9020066911760324E1
285 31 3.0521065508477463
285 271 2.902451299462223
285 285 3.2155525102339885E2
285 288 1.77436121298406E1
285 291 4.056118333638636
285 300 6.194058443701051E1
285 303 6.3299128912417146E1
285 339 -5.754439055587153E1
285 535 1.7853681283098002
285 552 -1.1028601998544445E1
285 583 -3.494718288845448E1
286 272 2.902451299462223
286 286 3.2155525102339885E2
286 289 1.77436121298406E1
286 292 4.056118333638636
286 301 6.194058443701051E1
286 304 6.3299128912417146E1
286 340 -5.754439055587153E1
286 536 1.7853681283098002
286 551 3.0521065508477463
286 553 -1.1028601998544445E1
286 584 -3.494718288845448E1
287 273 2.902451299462223
287 280 3.0521065508477463
287 287 3.2155525102339885E2
287 290 1.77436121298406E1
287 293 4.056118333638636
287 302 6.194058443701051E1
287 305 6.3299128912417146E1
287 341 -5.754439055587153E1
287 537 1.7853681283098002
287 554 -1.1028601998544445E1
287 585 -3.494718288845448E1
288 246 3.1468974530026667E1
288 271 -6.037023708673956E-1
288 285 1.7743612129842248E1
288 288 1.4575306617620438E2
288 291 -1.2740467028649718
288 294 1.6009398491048952
288 303 -2.8297357697806746E1
288 339 -3.4649635034433146
288 378 3.62668973068957
288 396 5.39229303052015E1
289 270 3.1468974530026667E1
289 272 -6.037023708673956E-1
289 286 1.7743612129842248E1
289 289 1.4575306617620438E2
289 292 -1.2740467028649718
289 295 1.6009398491048952
289 304 -2.8297357697806746E1
289 340 -3.4649635034433146
289 361 3.62668973068957
289 374 5.39229303052015E1
290 247 3.1468974530026667E1
290 273 -6.037023708673956E-1
290 287 1.7743612129842248E1
290 290 1.4575306617620438E2
290 293 -1.2740467028649718
290 296 1.6009398491048952
290 305 -2.8297357697806746E1
290 341 -3.4649635034433146
290 379 3.62668973068957
290 397 5.39229303052015E1
291 31 1.8803078440767464
291 278 2.1551577521571854
291 282 7.337916052689181
291 285 4.056118333639233
291 288 -1.2740467028660092
291 291 1.0972916245091898E2
291 294 2.2956258165906007E-1
291 300 2.0960477166853593E1
291 303 -1.6910891310644573E1
292 30 2.1551577521571854
292 283 7.337916052689181
292 286 4.056118333639233
292 289 -1.2740467028660092
292 292 1.0972916245091898E2
292 295 2.2956258165906007E-1
292 301 2.0960477166853593E1
292 304 -1.6910891310644573E1
292 551 1.8803078440767464
293 279 2.1551577521571854
293 280 1.8803078440767464
293 284 7.337916052689181
293 287 4.056118333639233
293 290 -1.2740467028660092
293 293 1.0972916245091898E2
293 296 2.2956258165906007E-1
293 302 2.0960477166853593E1
293 305 -1.6910891310644573E1
294 282 2.2499840197607295
294 288 1.600939849104611
294 291 2.2956258165874743E-1
294 294 9.047177626046647E1
294 303 -2.345585278244034E1
294 378 -5.683190057664908
294 381 -1.497287184172643E1
295 283 2.2499840197607295
295 289 1.600939849104611
295 292 2.2956258165874743E-1
295 295 9.047177626046647E1
295 304 -2.345585278244034E1
295 361 -5.683190057664908
295 364 -1.497287184172643E1
296 284 2.2499840197607295
296 290 1.600939849104611
296 293 2.2956258165874743E-1
296 296 9.047177626046647E1
296 305 -2.345585278244034E1
296 379 -5.683190057664908
296 382 -1.497287184172643E1
297 5 -1.1761477724497624E1
297 8 -5.398991393047947E1
297 188 -1.5659962420517475
297 297 4.25821482664688E2
297 300 8.80914968036019E1
297 303 5.9202066393427316E1
297 306 -8.367367826284861E1
297 338 2.4102213285307265E1
297 390 -7.256611055210175E1
297 393 -5.68771653385064E1
298 7 -1.1761477724497624E1
298 50 -8.367367826284861E1
298 190 -1.5659962420517475
298 281 -5.398991393047947E1
298 298 4.25821482664688E2
298 299 2.4102213285307265E1
298 302 8.80914968036019E1
298 305 5.9202066393427316E1
298 391 -7.256611055210175E1
298 394 -5.68771653385064E1
299 281 -9.938813925557202
299 298 2.4102213285308956E1
299 299 1.6441031059943217E2
299 302 -1.1070763322705243E1
299 305 2.7999592905022563E1
299 337 -2.5206649832303363E1
299 394 -1.916820464355226E1
299 561 -1.3383220437380144E1
299 579 1.0721354807889218E1
300 8 -3.1051058857504948E1
300 10 -7.063413574377008
300 19 1.8395234073576535E1
300 22 -3.83018114888423E1
300 31 -9.301245260939908
300 42 4.120400476475039E1
300 278 -7.5583499659388735
300 282 2.139341660811612E1
300 285 6.194058443700912E1
300 291 2.0960477166852883E1
300 297 8.80914968036033E1
300 300 5.805798099248505E2
300 303 -4.3100072049668604E1
300 306 -6.1522733043489026E1
300 327 -1.1369064777004897E2
300 338 -1.1070763322706384E1
300 339 1.2482482187287974E2
300 583 -9.18924107324333E1
301 9 -3.1051058857504948E1
301 20 1.8395234073576535E1
301 30 -7.5583499659388735
301 43 4.120400476475039E1
301 48 -3.83018114888423E1
301 49 -6.1522733043489026E1
301 283 2.139341660811612E1
301 286 6.194058443700912E1
301 292 2.0960477166852883E1
301 301 5.805798099248505E2
301 304 -4.3100072049668604E1
301 328 -1.1369064777004897E2
301 340 1.2482482187287974E2
301 365 8.80914968036033E1
301 551 -9.301245260939908
301 560 -7.063413574377008
301 580 -1.1070763322706384E1
301 584 -9.18924107324333E1
302 11 4.120400476475039E1
302 21 1.8395234073576535E1
302 23 -3.83018114888423E1
302 50 -6.1522733043489026E1
302 279 -7.5583499659388735
302 280 -9.301245260939908
302 281 -3.1051058857504948E1
302 284 2.139341660811612E1
302 287 6.194058443700912E1
302 293 2.0960477166852883E1
302 298 8.80914968036033E1
302 299 -1.1070763322706384E1
302 302 5.805798099248505E2
302 305 -4.3100072049668604E1
302 341 1.2482482187287974E2
302 561 -7.063413574377008
302 579 -1.1369064777004897E2
302 585 -9.18924107324333E1
303 282 6.88955651531716
303 285 6.3299128912414844E1
303 288 -2.8297357697805865E1
303 291 -1.6910891310645425E1
303 294 -2.3455852782440807E1
303 297 5.92020663934271E1
303 300 -4.3100072049670786E1
303 303 3.879960494266168E2
303 306 -9.823100302638366
303 327 4.9344186483563185E1
303 335 2.4318355804013407
303 338 2.7999592905022638E1
303 339 -6.40158874580898E1
303 378 -5.560326960425408E1
303 381 -2.3289913986121064E1
303 386 -4.572473421318091E1
303 390 9.368131029877262
303 393 -4.648931446027567E1
303 396 4.216040592603889E-1
304 49 -9.823100302638366
304 283 6.88955651531716
304 286 6.3299128912414844E1
304 289 -2.8297357697805865E1
304 292 -1.6910891310645425E1
304 295 -2.3455852782440807E1
304 301 -4.3100072049670786E1
304 304 3.879960494266168E2
304 328 4.9344186483563185E1
304 336 2.4318355804013407
304 340 -6.40158874580898E1
304 361 -5.560326960425408E1
304 364 -2.3289913986121064E1
304 365 5.92020663934271E1
304 367 -4.572473421318091E1
304 369 9.368131029877262
304 370 -4.648931446027567E1
304 374 4.216040592603889E-1
304 580 2.7999592905022638E1
305 50 -9.823100302638366
305 284 6.88955651531716
305 287 6.3299128912414844E1
305 290 -2.8297357697805865E1
305 293 -1.6910891310645425E1
305 296 -2.3455852782440807E1
305 298 5.92020663934271E1
305 299 2.7999592905022638E1
305 302 -4.3100072049670786E1
305 305 3.879960494266168E2
305 337 2.4318355804013407
305 341 -6.40158874580898E1
305 379 -5.560326960425408E1
305 382 -2.3289913986121064E1
305 387 -4.572473421318091E1
305 391 9.368131029877262
305 394 -4.648931446027567E1
305 397 4.216040592603889E-1
305 579 4.9344186483563185E1
306 5 4.247886861527408
306 8 2.3097902334804246E1
306 12 7.80075755499789E-1
306 22 -1.7348390842775778
306 24 -3.609922550853206E1
306 27 1.0316292064699809E1
306 33 5.531112272459126
306 180 -1.1623118744587686E2
306 188 -4.5039765214604245E1
306 278 2.6625820326094207E1
306 282 -4.485429753021475E1
306 297 -8.367367826284956E1
306 300 -6.1522733043487946E1
306 303 -9.823100302637176
306 306 3.963817362654897E2
306 381 -7.746371160073932E1
306 390 1.442993387786968E1
307 307 2.9256634822890497E1
307 310 7.510255271249028E-1
307 316 -7.0892006455772645
307 319 -3.253318188594389E1
307 324 1.2152555624683252E1
307 332 -1.655791609787202E1
307 425 1.2883595775911427E-1
308 269 -3.253318188594389E1
308 308 2.9256634822890497E1
308 311 7.510255271249028E-1
308 317 -7.0892006455772645
308 325 1.2152555624683252E1
308 333 -1.655791609787202E1
308 426 1.2883595775911427E-1
309 309 2.9256634822890497E1
309 312 7.510255271249028E-1
309 318 -7.0892006455772645
309 320 -3.253318188594389E1
309 326 1.2152555624683252E1
309 334 -1.655791609787202E1
309 427 1.2883595775911427E-1
310 307 7.510255271250769E-1
310 310 3.7899352647321514E1
310 313 -9.160803389846203
310 316 -3.04922186705173E-1
310 329 9.594107466698576
310 332 1.3236841597565103
310 528 -5.538725044828356E-1
311 308 7.510255271250769E-1
311 311 3.7899352647321514E1
311 314 -9.160803389846203
311 317 -3.04922186705173E-1
311 330 9.594107466698576
311 333 1.3236841597565103
311 529 -5.538725044828356E-1
312 309 7.510255271250769E-1
312 312 3.7899352647321514E1
312 315 -9.160803389846203
312 318 -3.04922186705173E-1
312 331 9.594107466698576
312 334 1.3236841597565103
312 530 -5.538725044828356E-1
313 259 6.077460452409831E-1
313 310 -9.160803389846208
313 313 3.583354845026272E2
313 316 -7.662754981690702
313 321 -1.2243191686094193E1
313 329 1.8041600009005364E1
313 332 3.621746658553752E1
313 339 -1.2687136109757706E1
313 528 -3.509081094301029E1
313 532 1.895283760035111E1
313 541 -4.649796276984816E1
313 548 4.260722368057413
314 260 6.077460452409831E-1
314 311 -9.160803389846208
314 314 3.583354845026272E2
314 317 -7.662754981690702
314 322 -1.2243191686094193E1
314 330 1.8041600009005364E1
314 333 3.621746658553752E1
314 340 -1.2687136109757706E1
314 529 -3.509081094301029E1
314 533 1.895283760035111E1
314 542 -4.649796276984816E1
314 549 4.260722368057413
315 261 6.077460452409831E-1
315 312 -9.160803389846208
315 315 3.583354845026272E2
315 318 -7.662754981690702
315 323 -1.2243191686094193E1
315 331 1.8041600009005364E1
315 334 3.621746658553752E1
315 341 -1.2687136109757706E1
315 530 -3.509081094301029E1
315 534 1.895283760035111E1
315 543 -4.649796276984816E1
315 550 4.260722368057413
316 275 -4.2802672417240984E1
316 307 -7.08920064557698
316 310 -3.0492218670556204E-1
316 313 -7.662754981689082
316 316 6.558470641231433E1
316 319 5.070545987351506
316 321 -2.854402633392945E1
316 332 -2.036306695391941E1
316 339 2.1765642620339065E-1
317 269 5.070545987351506
317 276 -4.2802672417240984E1
317 308 -7.08920064557698
317 311 -3.0492218670556204E-1
317 314 -7.662754981689082
317 317 6.558470641231433E1
317 322 -2.854402633392945E1
317 333 -2.036306695391941E1
317 340 2.1765642620339065E-1
318 277 -4.2802672417240984E1
318 309 -7.08920064557698
318 312 -3.0492218670556204E-1
318 315 -7.662754981689082
318 318 6.558470641231433E1
318 320 5.070545987351506
318 323 -2.854402633392945E1
318 334 -2.036306695391941E1
318 341 2.1765642620339065E-1
319 275 -4.7749005196380715E1
319 307 -3.253318188594366E1
319 316 5.070545987352103
319 319 2.3331766947112558E2
319 324 -6.465101065242156E1
319 332 -1.2813521840017595E1
319 383 -2.5700404700656726E1
319 396 2.3714911832033508E1
319 425 -4.598973224712834
319 428 -1.5199022038789E1
320 250 -2.5700404700656726E1
320 277 -4.7749005196380715E1
320 309 -3.253318188594366E1
320 318 5.070545987352103
320 320 2.3331766947112558E2
320 326 -6.465101065242156E1
320 334 -1.2813521840017595E1
320 397 2.3714911832033508E1
320 427 -4.598973224712834
320 430 -1.5199022038789E1
321 256 7.0922348303309235
321 259 -1.048939282158942E1
321 275 1.8524840059833146E1
321 313 -1.2243191686094278E1
321 316 -2.8544026333929324E1
321 321 6.633494498454294E1
321 339 -9.671575274000265E-1
322 257 7.0922348303309235
322 260 -1.048939282158942E1
322 276 1.8524840059833146E1
322 314 -1.2243191686094278E1
322 317 -2.8544026333929324E1
322 322 6.633494498454294E1
322 340 -9.671575274000265E-1
323 258 7.0922348303309235
323 261 -1.048939282158942E1
323 277 1.8524840059833146E1
323 315 -1.2243191686094278E1
323 318 -2.8544026333929324E1
323 323 6.633494498454294E1
323 341 -9.671575274000265E-1
324 275 6.482825705261021E1
324 307 1.2152555624683583E1
324 319 -6.465101065242112E1
324 324 2.2123617526154868E2
324 332 -1.947841056454525
324 335 -5.995894018507421E1
324 339 1.7102396520108975E1
324 386 1.2408268587811941E1
324 396 -5.948316818845937E1
324 425 -1.1800364658423877E1
324 428 4.054770831060066
324 448 -6.806923085788788
325 269 -6.465101065242112E1
325 276 6.482825705261021E1
325 308 1.2152555624683583E1
325 325 2.2123617526154868E2
325 333 -1.947841056454525
325 336 -5.995894018507421E1
325 340 1.7102396520108975E1
325 367 1.2408268587811941E1
325 374 -5.948316818845937E1
325 426 -1.1800364658423877E1
325 429 4.054770831060066
325 449 -6.806923085788788
326 277 6.482825705261021E1
326 309 1.2152555624683583E1
326 320 -6.465101065242112E1
326 326 2.2123617526154868E2
326 334 -1.947841056454525
326 337 -5.995894018507421E1
326 341 1.7102396520108975E1
326 387 1.2408268587811941E1
326 397 -5.948316818845937E1
326 427 -1.1800364658423877E1
326 430 4.054770831060066
326 450 -6.806923085788788
327 10 -1.5377747893362104E1
327 300 -1.1369064777004748E2
327 303 4.934418648356332E1
327 327 2.375398617947545E2
327 329 7.465539860671928
327 332 -3.592187349024208E1
327 335 -2.5716064753730773E1
327 338 1.0721354807891194E1
327 339 -1.050374643937327E2
327 562 -8.775629539843094E1
327 583 5.189479767255785
328 301 -1.1369064777004748E2
328 304 4.934418648356332E1
328 328 2.375398617947545E2
328 330 7.465539860671928
328 333 -3.592187349024208E1
328 336 -2.5716064753730773E1
328 340 -1.050374643937327E2
328 560 -1.5377747893362104E1
328 563 -8.775629539843094E1
328 580 1.0721354807891194E1
328 584 5.189479767255785
329 310 9.594107466699043
329 313 1.8041600009007013E1
329 327 7.465539860672113
329 329 1.662630749453035E2
329 332 -1.8714836562025646E1
329 339 -2.5635577289730627E1
329 528 -1.4437417070835831E1
329 544 7.3938366723289946
329 548 3.7683769094850454
329 562 -3.4920970819732034E1
329 565 -3.3642553723420455E1
330 311 9.594107466699043
330 314 1.8041600009007013E1
330 328 7.465539860672113
330 330 1.662630749453035E2
330 333 -1.8714836562025646E1
330 340 -2.5635577289730627E1
330 529 -1.4437417070835831E1
330 545 7.3938366723289946
330 549 3.7683769094850454
330 563 -3.4920970819732034E1
330 566 -3.3642553723420455E1
331 312 9.594107466699043
331 315 1.8041600009007013E1
331 331 1.662630749453035E2
331 334 -1.8714836562025646E1
331 341 -2.5635577289730627E1
331 530 -1.4437417070835831E1
331 546 7.3938366723289946
331 550 3.7683769094850454
331 564 -3.4920970819732034E1
331 567 -3.3642553723420455E1
331 579 7.465539860672113
332 275 4.457482683846905E1
332 307 -1.6557916097872067E1
332 310 1.3236841597565396
332 313 3.62174665855365E1
332 316 -2.0363066953916814E1
332 319 -1.2813521840017247E1
332 324 -1.9478410564512565
332 327 -3.592187349024225E1
332 329 -1.871483656202262E1
332 332 2.4508714874789274E2
332 335 1.6519936597785442E1
332 339 1.3693931580973464E1
333 269 -1.2813521840017247E1
333 276 4.457482683846905E1
333 308 -1.6557916097872067E1
333 311 1.3236841597565396
333 314 3.62174665855365E1
333 317 -2.0363066953916814E1
333 325 -1.9478410564512565
333 328 -3.592187349024225E1
333 330 -1.871483656202262E1
333 333 2.4508714874789274E2
333 336 1.6519936597785442E1
333 340 1.3693931580973464E1
334 277 4.457482683846905E1
334 309 -1.6557916097872067E1
334 312 1.3236841597565396
334 315 3.62174665855365E1
334 318 -2.0363066953916814E1
334 320 -1.2813521840017247E1
334 326 -1.9478410564512565
334 331 -1.871483656202262E1
334 334 2.4508714874789274E2
334 337 1.6519936597785442E1
334 341 1.3693931580973464E1
334 579 -3.592187349024225E1
335 303 2.4318355804011205
335 324 -5.995894018507393E1
335 327 -2.5716064753730492E1
335 332 1.6519936597786664E1
335 335 2.878140735197528E2
335 338 -2.5206649832303583E1
335 339 3.76945570493341E1
335 386 -4.35188475986329
335 393 -2.2044127491770746
335 396 5.981455808540919E1
336 304 2.4318355804011205
336 325 -5.995894018507393E1
336 328 -2.5716064753730492E1
336 333 1.6519936597786664E1
336 336 2.878140735197528E2
336 340 3.76945570493341E1
336 367 -4.35188475986329
336 370 -2.2044127491770746
336 374 5.981455808540919E1
336 580 -2.5206649832303583E1
337 299 -2.5206649832303583E1
337 305 2.4318355804011205
337 326 -5.995894018507393E1
337 334 1.6519936597786664E1
337 337 2.878140735197528E2
337 341 3.76945570493341E1
337 387 -4.35188475986329
337 394 -2.2044127491770746
337 397 5.981455808540919E1
337 579 -2.5716064753730492E1
338 8 -9.938813925557202
338 10 -1.3383220437380144E1
338 297 2.4102213285308956E1
338 300 -1.1070763322705243E1
338 303 2.7999592905022563E1
338 327 1.0721354807889218E1
338 335 -2.5206649832303363E1
338 338 1.6441031059943217E2
338 393 -1.916820464355226E1
339 246 5.374161716262222
339 256 -5.0972794077693E-1
339 259 -1.694237637208515E1
339 266 2.2263912445191494
339 271 -1.9432311078396566E1
339 275 -1.2556798675849496E1
339 285 -5.7544390555870535E1
339 288 -3.4649635034430872
339 300 1.2482482187287923E2
339 303 -6.401588745808826E1
339 313 -1.2687136109757015E1
339 316 2.176564262040941E-1
339 321 -9.671575273992701E-1
339 324 1.7102396520108073E1
339 327 -1.050374643937331E2
339 329 -2.5635577289731724E1
339 332 1.3693931580973365E1
339 335 3.7694557049333476E1
339 339 4.868711500061041E2
339 396 2.766128869233504E1
339 535 3.227512715434018E1
339 541 2.2615803798154506E1
339 548 -1.0328590078981777E2
339 552 1.4959418624478086E1
339 562 -3.6406752490893815E1
339 583 -1.188342985248089E1
340 257 -5.0972794077693E-1
340 260 -1.694237637208515E1
340 267 2.2263912445191494
340 270 5.374161716262222
340 272 -1.9432311078396566E1
340 276 -1.2556798675849496E1
340 286 -5.7544390555870535E1
340 289 -3.4649635034430872
340 301 1.2482482187287923E2
340 304 -6.401588745808826E1
340 314 -1.2687136109757015E1
340 317 2.176564262040941E-1
340 322 -9.671575273992701E-1
340 325 1.7102396520108073E1
340 328 -1.050374643937331E2
340 330 -2.5635577289731724E1
340 333 1.3693931580973365E1
340 336 3.7694557049333476E1
340 340 4.868711500061041E2
340 374 2.766128869233504E1
340 536 3.227512715434018E1
340 542 2.2615803798154506E1
340 549 -1.0328590078981777E2
340 553 1.4959418624478086E1
340 563 -3.6406752490893815E1
340 584 -1.188342985248089E1
341 247 5.374161716262222
341 258 -5.0972794077693E-1
341 261 -1.694237637208515E1
341 268 2.2263912445191494
341 273 -1.9432311078396566E1
341 277 -1.2556798675849496E1
341 287 -5.7544390555870535E1
341 290 -3.4649635034430872
341 302 1.2482482187287923E2
341 305 -6.401588745808826E1
341 315 -1.2687136109757015E1
341 318 2.176564262040941E-1
341 323 -9.671575273992701E-1
341 326 1.7102396520108073E1
341 331 -2.5635577289731724E1
341 334 1.3693931580973365E1
341 337 3.7694557049333476E1
341 341 4.868711500061041E2
341 397 2.766128869233504E1
341 537 3.227512715434018E1
341 543 2.2615803798154506E1
341 550 -1.0328590078981777E2
341 554 1.4959418624478086E1
341 564 -3.6406752490893815E1
341 579 -1.050374643937331E2
341 585 -1.188342985248089E1
342 164 -2.5344009183772656
342 175 1.3675555632018712E1
342 183 -1.1956984254328866E1
342 342 3.981924460710897E1
342 345 -6.909429748329404
342 354 -3.433364202543517E1
342 359 -3.768650636716515E-1
342 372 -6.4968060528261375
343 165 -2.5344009183772656
343 176 1.3675555632018712E1
343 184 -1.1956984254328866E1
343 343 3.981924460710897E1
343 346 -6.909429748329404
343 355 -3.433364202543517E1
343 360 -3.768650636716515E-1
343 373 -6.4968060528261375
344 166 -6.9094297483295675
344 344 3.6335256045708E1
344 371 -9.845166947546574
344 377 -9.899035099592325
344 380 3.0227041800814374
344 395 1.2650206035316705E1
344 401 -6.0116951206710425
345 342 -6.9094297483295675
345 345 3.6335256045708E1
345 359 -9.899035099592325
345 362 3.0227041800814374
345 372 -9.845166947546574
345 402 -6.0116951206710425
345 453 1.2650206035316705E1
346 343 -6.9094297483295675
346 346 3.6335256045708E1
346 360 -9.899035099592325
346 363 3.0227041800814374
346 373 -9.845166947546574
346 421 -6.0116951206710425
346 454 1.2650206035316705E1
347 168 1.031789964297817
347 174 -1.1927963717436638
347 191 3.955119362174809
347 347 5.0364143524786584E1
347 350 3.587570354579046E-1
347 353 -8.609783733881088
347 384 9.569389086803216
348 169 1.031789964297817
348 175 -1.1927963717436638
348 192 3.955119362174809
348 348 5.0364143524786584E1
348 351 3.587570354579046E-1
348 354 -8.609783733881088
348 366 9.569389086803216
349 170 1.031789964297817
349 176 -1.1927963717436638
349 193 3.955119362174809
349 349 5.0364143524786584E1
349 352 3.587570354579046E-1
349 355 -8.609783733881088
349 385 9.569389086803216
350 347 3.5875703545772963E-1
350 350 9.403529369322935E1
350 353 4.874652518083423
350 356 -2.427568760279705E1
350 375 2.7719372118792545
350 384 -1.8260672121114766E1
350 388 -2.7228004627329216
351 348 3.5875703545772963E-1
351 351 9.403529369322935E1
351 354 4.874652518083423
351 357 -2.427568760279705E1
351 366 -1.8260672121114766E1
351 368 -2.7228004627329216
351 437 2.7719372118792545
352 349 3.5875703545772963E-1
352 352 9.403529369322935E1
352 355 4.874652518083423
352 358 -2.427568760279705E1
352 385 -1.8260672121114766E1
352 389 -2.7228004627329216
352 438 2.7719372118792545
353 166 -3.4333642025435125E1
353 174 -1.0302109093387762E2
353 182 7.762333332018991E1
353 191 -5.0942339301570044E1
353 347 -8.609783733881088
353 350 4.8746525180834235
353 353 4.8141372001001236E2
353 356 1.5717153870577947
353 371 -2.6993399136474753E1
353 377 -4.655330726148891E1
353 384 -1.3229205922978582E2
354 175 -1.0302109093387762E2
354 183 7.762333332018991E1
354 192 -5.0942339301570044E1
354 342 -3.4333642025435125E1
354 348 -8.609783733881088
354 351 4.8746525180834235
354 354 4.8141372001001236E2
354 357 1.5717153870577947
354 359 -4.655330726148891E1
354 366 -1.3229205922978582E2
354 372 -2.6993399136474753E1
355 176 -1.0302109093387762E2
355 184 7.762333332018991E1
355 193 -5.0942339301570044E1
355 343 -3.4333642025435125E1
355 349 -8.609783733881088
355 352 4.8746525180834235
355 355 4.8141372001001236E2
355 358 1.5717153870577947
355 360 -4.655330726148891E1
355 373 -2.6993399136474753E1
355 385 -1.3229205922978582E2
356 350 -2.4275687602797056E1
356 353 1.5717153870581215
356 356 1.2424542439767032E2
356 371 -1.3858999983479947E1
356 375 4.056565121931262
356 376 4.3255573462100094E-1
356 384 -8.90515605251434E-1
356 388 1.6878722679876215
356 395 5.032537332911669
357 351 -2.4275687602797056E1
357 354 1.5717153870581215
357 357 1.2424542439767032E2
357 366 -8.90515605251434E-1
357 368 1.6878722679876215
357 372 -1.3858999983479947E1
357 437 4.056565121931262
357 439 4.3255573462100094E-1
357 453 5.032537332911669
358 352 -2.4275687602797056E1
358 355 1.5717153870581215
358 358 1.2424542439767032E2
358 373 -1.3858999983479947E1
358 385 -8.90515605251434E-1
358 389 1.6878722679876215
358 438 4.056565121931262
358 440 4.3255573462100094E-1
358 454 5.032537332911669
359 183 -3.939685644412636E1
359 192 5.9587500732891634E1
359 342 -3.768650636717936E-1
359 345 -9.89903509959221
359 354 -4.655330726148949E1
359 359 9.627626194532166E2
359 361 1.0368352672767148E1
359 362 8.06739081217782
359 364 -1.4629382126719884E2
359 366 -1.0748618788373474E2
359 367 6.653987300260543E1
359 368 1.100187768740001E2
359 369 6.431982270057057E1
359 372 1.5479062824211056E1
359 374 -1.6832888907630243E2
360 184 -3.939685644412636E1
360 193 5.9587500732891634E1
360 343 -3.768650636717936E-1
360 346 -9.89903509959221
360 355 -4.655330726148949E1
360 360 9.627626194532166E2
360 363 8.06739081217782
360 373 1.5479062824211056E1
360 379 1.0368352672767148E1
360 382 -1.4629382126719884E2
360 385 -1.0748618788373474E2
360 387 6.653987300260543E1
360 389 1.100187768740001E2
360 391 6.431982270057057E1
360 397 -1.6832888907630243E2
361 270 5.388893136686988
361 289 3.626689730689627
361 295 -5.683190057665519
361 304 -5.560326960425412E1
361 359 1.036835267276657E1
361 361 4.2177043909339955E2
361 362 6.712193170607861
361 364 3.735913461281994E1
361 367 1.0807765236221815E2
361 374 -1.3748869267864129E2
361 441 6.579247605335738
362 345 3.022704180081955
362 359 8.067390812178274
362 361 6.712193170607065
362 362 3.0011288613490797E2
362 368 2.7512340682674576
362 372 2.2370629930981266E1
362 374 -5.8029060600331505E1
362 402 8.567377982965745
362 413 1.9048657876700883E1
362 441 5.0869614082315735
362 453 2.500520415875743E1
363 249 5.0869614082315735
363 346 3.022704180081955
363 360 8.067390812178274
363 363 3.0011288613490797E2
363 373 2.2370629930981266E1
363 379 6.712193170607065
363 389 2.7512340682674576
363 397 -5.8029060600331505E1
363 414 1.9048657876700883E1
363 421 8.567377982965745
363 454 2.500520415875743E1
364 32 1.42115518769073E1
364 49 -7.746371160073869E1
364 183 -2.8281710796392993E1
364 189 -2.510989410818808
364 192 2.9507095564009905E1
364 283 -2.9020066911761347E1
364 295 -1.497287184172481E1
364 304 -2.3289913986121746E1
364 359 -1.4629382126719884E2
364 361 3.735913461281926E1
364 364 6.920099322564388E2
364 367 9.706223068135571E1
364 369 1.672643341667957E1
365 6 -1.1761477724497624E1
365 9 -5.398991393047947E1
365 49 -8.367367826284861E1
365 189 -1.5659962420517475
365 301 8.80914968036019E1
365 304 5.9202066393427316E1
365 365 4.25821482664688E2
365 369 -7.256611055210175E1
365 370 -5.68771653385064E1
365 580 2.4102213285307265E1
366 192 -5.809804001046833E1
366 348 9.569389086803719
366 351 -1.8260672121114307E1
366 354 -1.3229205922978585E2
366 357 -8.905156052509928E-1
366 359 -1.0748618788373474E2
366 366 7.357606202224794E2
366 367 -9.462521103568815E1
366 368 -6.3836640278543655E1
366 369 1.4949320155868719E1
366 372 2.6910654985001244E1
366 374 1.0456361298130174E2
367 304 -4.572473421318159E1
367 325 1.2408268587811985E1
367 336 -4.351884759866047
367 359 6.653987300260452E1
367 361 1.0807765236221724E2
367 364 9.706223068135492E1
367 366 -9.462521103568724E1
367 367 3.783761924473479E2
367 368 2.371320464784948E1
367 369 -8.156601896949711
367 370 -9.792190244283715
367 374 -1.294096322809477E2
367 449 -2.7700985665412E1
368 351 -2.722800462733618
368 357 1.6878722679884477
368 359 1.1001877687400054E2
368 362 2.751234068267543
368 366 -6.383664027854343E1
368 367 2.3713204647850418E1
368 368 2.5173392902200482E2
368 372 -2.3949730484989413E1
368 374 -5.2398423759124796E1
368 437 -4.1803075234218126
368 439 5.213031164864282
368 449 -1.664214933396236E1
368 451 -1.8307312617260134E1
368 453 -6.9143638391794955
369 49 1.4429933877870143E1
369 189 -1.323768191243366E2
369 192 1.2704218952384062E1
369 304 9.368131029877837
369 359 6.431982270057239E1
369 364 1.6726433416678063E1
369 365 -7.256611055210294E1
369 366 1.4949320155870492E1
369 367 -8.15660189694867
369 369 5.780839744869646E2
369 370 -3.6706465120843234E1
370 304 -4.6489314460275864E1
370 336 -2.2044127491785863
370 365 -5.687716533850676E1
370 367 -9.792190244283894
370 369 -3.670646512084093E1
370 370 1.0841178488280045E2
370 580 -1.9168204643551288E1
371 166 -6.496806052826191
371 344 -9.845166947546403
371 353 -2.699339913647415E1
371 356 -1.385899998348006E1
371 371 1.6142709765126685E2
371 377 1.547906282420935E1
371 380 2.2370629930981977E1
371 384 2.6910654985002175E1
371 388 -2.3949730484989786E1
371 395 -8.578697005834004
372 342 -6.496806052826191
372 345 -9.845166947546403
372 354 -2.699339913647415E1
372 357 -1.385899998348006E1
372 359 1.547906282420935E1
372 362 2.2370629930981977E1
372 366 2.6910654985002175E1
372 368 -2.3949730484989786E1
372 372 1.6142709765126685E2
372 453 -8.578697005834004
373 343 -6.496806052826191
373 346 -9.845166947546403
373 355 -2.699339913647415E1
373 358 -1.385899998348006E1
373 360 1.547906282420935E1
373 363 2.2370629930981977E1
373 373 1.6142709765126685E2
373 385 2.6910654985002175E1
373 389 -2.3949730484989786E1
373 454 -8.578697005834004
374 237 1.2683752199821406E1
374 255 1.5795533700008619E1
374 269 2.371491183203443E1
374 270 -2.8798172147948904E1
374 274 1.622781076726577E1
374 276 2.6388099455393217E1
374 289 5.392293030520112E1
374 304 4.2160405926290423E-1
374 325 -5.948316818846057E1
374 336 5.981455808540871E1
374 340 2.766128869233274E1
374 359 -1.683288890763026E2
374 361 -1.3748869267864188E2
374 362 -5.802906060033166E1
374 366 1.045636129813011E2
374 367 -1.294096322809463E2
374 368 -5.2398423759122124E1
374 374 7.14476032635375E2
374 413 -3.656080184521834E1
374 429 -4.590399168328819
374 441 -4.4032579822598336E1
374 443 -7.7748913461484435
374 449 -2.239094575564138E1
374 451 4.974517584679703
374 453 2.0056382253279637E1
375 350 2.7719372118792784
375 356 4.0565651219313885
375 375 4.4067638363713236E1
375 376 -2.9894809222146833E1
375 388 -4.1803075234217975
375 392 -1.2099559088272933
375 418 -6.785465401019981E-1
376 356 4.3255573462052754E-1
376 375 -2.989480922214669E1
376 376 1.1436617384302053E2
376 388 5.213031164864595
376 392 -2.9832081320405894E1
376 395 -4.499779688920285
376 418 7.765267088681882
376 434 1.8422256265928443
376 445 2.062484927302995E1
377 166 -3.768650636717936E-1
377 182 -3.939685644412636E1
377 191 5.9587500732891634E1
377 344 -9.89903509959221
377 353 -4.655330726148949E1
377 371 1.5479062824211056E1
377 377 9.627626194532166E2
377 378 1.0368352672767148E1
377 380 8.06739081217782
377 381 -1.4629382126719884E2
377 384 -1.0748618788373474E2
377 386 6.653987300260543E1
377 388 1.100187768740001E2
377 390 6.431982270057057E1
377 396 -1.6832888907630243E2
378 246 5.388893136686988
378 248 6.579247605335738
378 288 3.626689730689627
378 294 -5.683190057665519
378 303 -5.560326960425412E1
378 377 1.036835267276657E1
378 378 4.2177043909339955E2
378 380 6.712193170607861
378 381 3.735913461281994E1
378 386 1.0807765236221815E2
378 396 -1.3748869267864129E2
379 247 5.388893136686988
379 249 6.579247605335738
379 290 3.626689730689627
379 296 -5.683190057665519
379 305 -5.560326960425412E1
379 360 1.036835267276657E1
379 363 6.712193170607861
379 379 4.2177043909339955E2
379 382 3.735913461281994E1
379 387 1.0807765236221815E2
379 397 -1.3748869267864129E2
380 248 5.0869614082315735
380 344 3.022704180081955
380 371 2.2370629930981266E1
380 377 8.067390812178274
380 378 6.712193170607065
380 380 3.0011288613490797E2
380 388 2.7512340682674576
380 395 2.500520415875743E1
380 396 -5.8029060600331505E1
380 401 8.567377982965745
380 412 1.9048657876700883E1
381 180 1.42115518769073E1
381 182 -2.8281710796392993E1
381 188 -2.510989410818808
381 191 2.9507095564009905E1
381 282 -2.9020066911761347E1
381 294 -1.497287184172481E1
381 303 -2.3289913986121746E1
381 306 -7.746371160073869E1
381 377 -1.4629382126719884E2
381 378 3.735913461281926E1
381 381 6.920099322564388E2
381 386 9.706223068135571E1
381 390 1.672643341667957E1
382 50 -7.746371160073869E1
382 181 1.42115518769073E1
382 184 -2.8281710796392993E1
382 190 -2.510989410818808
382 193 2.9507095564009905E1
382 284 -2.9020066911761347E1
382 296 -1.497287184172481E1
382 305 -2.3289913986121746E1
382 360 -1.4629382126719884E2
382 379 3.735913461281926E1
382 382 6.920099322564388E2
382 387 9.706223068135571E1
382 391 1.672643341667957E1
383 236 -2.273843479819865E1
383 239 -1.1934235838781026E1
383 275 1.0069572270281633E1
383 319 -2.5700404700656847E1
383 383 1.1518869938658467E2
383 396 1.622781076726652E1
383 428 -1.036831001951551E1
383 442 -2.3984513651905095
384 191 -5.809804001046833E1
384 347 9.569389086803719
384 350 -1.8260672121114307E1
384 353 -1.3229205922978585E2
384 356 -8.905156052509928E-1
384 371 2.6910654985001244E1
384 377 -1.0748618788373474E2
384 384 7.357606202224794E2
384 386 -9.462521103568815E1
384 388 -6.3836640278543655E1
384 390 1.4949320155868719E1
384 396 1.0456361298130174E2
385 193 -5.809804001046833E1
385 349 9.569389086803719
385 352 -1.8260672121114307E1
385 355 -1.3229205922978585E2
385 358 -8.905156052509928E-1
385 360 -1.0748618788373474E2
385 373 2.6910654985001244E1
385 385 7.357606202224794E2
385 387 -9.462521103568815E1
385 389 -6.3836640278543655E1
385 391 1.4949320155868719E1
385 397 1.0456361298130174E2
386 303 -4.572473421318159E1
386 324 1.2408268587811985E1
386 335 -4.351884759866047
386 377 6.653987300260452E1
386 378 1.0807765236221724E2
386 381 9.706223068135492E1
386 384 -9.462521103568724E1
386 386 3.783761924473479E2
386 388 2.371320464784948E1
386 390 -8.156601896949711
386 393 -9.792190244283715
386 396 -1.294096322809477E2
386 448 -2.7700985665412E1
387 305 -4.572473421318159E1
387 326 1.2408268587811985E1
387 337 -4.351884759866047
387 360 6.653987300260452E1
387 379 1.0807765236221724E2
387 382 9.706223068135492E1
387 385 -9.462521103568724E1
387 387 3.783761924473479E2
387 389 2.371320464784948E1
387 391 -8.156601896949711
387 394 -9.792190244283715
387 397 -1.294096322809477E2
387 450 -2.7700985665412E1
388 350 -2.722800462733618
388 356 1.6878722679884477
388 371 -2.3949730484989413E1
388 375 -4.1803075234218126
388 376 5.213031164864282
388 377 1.1001877687400054E2
388 380 2.751234068267543
388 384 -6.383664027854343E1
388 386 2.3713204647850418E1
388 388 2.5173392902200482E2
388 392 -1.8307312617260134E1
388 395 -6.9143638391794955
388 396 -5.2398423759124796E1
388 448 -1.664214933396236E1
389 352 -2.722800462733618
389 358 1.6878722679884477
389 360 1.1001877687400054E2
389 363 2.751234068267543
389 373 -2.3949730484989413E1
389 385 -6.383664027854343E1
389 387 2.3713204647850418E1
389 389 2.5173392902200482E2
389 397 -5.2398423759124796E1
389 438 -4.1803075234218126
389 440 5.213031164864282
389 450 -1.664214933396236E1
389 452 -1.8307312617260134E1
389 454 -6.9143638391794955
390 188 -1.323768191243366E2
390 191 1.2704218952384062E1
390 297 -7.256611055210294E1
390 303 9.368131029877837
390 306 1.4429933877870143E1
390 377 6.431982270057239E1
390 381 1.6726433416678063E1
390 384 1.4949320155870492E1
390 386 -8.15660189694867
390 390 5.780839744869646E2
390 393 -3.6706465120843234E1
391 50 1.4429933877870143E1
391 190 -1.323768191243366E2
391 193 1.2704218952384062E1
391 298 -7.256611055210294E1
391 305 9.368131029877837
391 360 6.431982270057239E1
391 382 1.6726433416678063E1
391 385 1.4949320155870492E1
391 387 -8.15660189694867
391 391 5.780839744869646E2
391 394 -3.6706465120843234E1
392 375 -1.209955908827439
392 376 -2.9832081320405706E1
392 388 -1.8307312617260212E1
392 392 1.1648992675019835E2
392 395 -6.588388633207556
392 396 4.97451758467928
392 418 4.528966483194399E-1
392 422 -1.6028377265314075
392 431 4.9495665158956603E-1
392 442 1.1458229198963622E1
392 445 4.949264064841934
392 448 -2.70698887267183E1
393 297 -5.687716533850676E1
393 303 -4.6489314460275864E1
393 335 -2.2044127491785863
393 338 -1.9168204643551288E1
393 386 -9.792190244283894
393 390 -3.670646512084093E1
393 393 1.0841178488280045E2
394 298 -5.687716533850676E1
394 299 -1.9168204643551288E1
394 305 -4.6489314460275864E1
394 337 -2.2044127491785863
394 387 -9.792190244283894
394 391 -3.670646512084093E1
394 394 1.0841178488280045E2
395 344 1.2650206035316698E1
395 356 5.0325373329115415
395 371 -8.578697005833183
395 376 -4.499779688921208
395 380 2.500520415875694E1
395 388 -6.914363839178991
395 392 -6.58838863320697
395 395 2.0502520333369444E2
395 396 2.005638225327847E1
395 401 3.319470203217634E-2
395 412 1.3667246987166848E1
395 415 2.795615383187027E-1
395 434 -1.0460899349349084
395 442 2.388135617421993E1
395 445 6.130087474797648
396 236 1.2683752199821406E1
396 239 1.5795533700008619E1
396 246 -2.8798172147948904E1
396 248 -4.4032579822598336E1
396 275 2.6388099455393217E1
396 288 5.392293030520112E1
396 303 4.2160405926290423E-1
396 319 2.371491183203443E1
396 324 -5.948316818846057E1
396 335 5.981455808540871E1
396 339 2.766128869233274E1
396 377 -1.683288890763026E2
396 378 -1.3748869267864188E2
396 380 -5.802906060033166E1
396 383 1.622781076726577E1
396 384 1.045636129813011E2
396 386 -1.294096322809463E2
396 388 -5.2398423759122124E1
396 392 4.974517584679703
396 395 2.0056382253279637E1
396 396 7.14476032635375E2
396 412 -3.656080184521834E1
396 428 -4.590399168328819
396 442 -7.7748913461484435
396 448 -2.239094575564138E1
397 238 1.2683752199821406E1
397 240 1.5795533700008619E1
397 247 -2.8798172147948904E1
397 249 -4.4032579822598336E1
397 250 1.622781076726577E1
397 277 2.6388099455393217E1
397 290 5.392293030520112E1
397 305 4.2160405926290423E-1
397 320 2.371491183203443E1
397 326 -5.948316818846057E1
397 337 5.981455808540871E1
397 341 2.766128869233274E1
397 360 -1.683288890763026E2
397 363 -5.802906060033166E1
397 379 -1.3748869267864188E2
397 385 1.045636129813011E2
397 387 -1.294096322809463E2
397 389 -5.2398423759122124E1
397 397 7.14476032635375E2
397 414 -3.656080184521834E1
397 430 -4.590399168328819
397 444 -7.7748913461484435
397 450 -2.239094575564138E1
397 452 4.974517584679703
397 454 2.0056382253279637E1
398 398 2.1000383669505823E1
398 401 6.880869559049358E-1
398 403 1.2451556814608011E-1
398 406 -3.504587929149591
398 409 -2.703737640407592
398 412 -1.5435110123056286E-1
398 415 3.7507930209357596
398 434 -4.208412239004389
399 399 2.1000383669505823E1
399 402 6.880869559049358E-1
399 404 1.2451556814608011E-1
399 407 -3.504587929149591
399 410 -2.703737640407592
399 413 -1.5435110123056286E-1
399 416 3.7507930209357596
399 435 -4.208412239004389
400 400 2.1000383669505823E1
400 405 1.2451556814608011E-1
400 408 -3.504587929149591
400 411 -2.703737640407592
400 414 -1.5435110123056286E-1
400 417 3.7507930209357596
400 421 6.880869559049358E-1
400 436 -4.208412239004389
401 344 -6.0116951206709714
401 380 8.567377982965773
401 395 3.319470203200581E-2
401 398 6.880869559049358E-1
401 401 2.1489722353217218E1
401 412 -1.6657944533419347
401 415 4.435499435450403
402 345 -6.0116951206709714
402 362 8.567377982965773
402 399 6.880869559049358E-1
402 402 2.1489722353217218E1
402 413 -1.6657944533419347
402 416 4.435499435450403
402 453 3.319470203200581E-2
403 231 5.0117917893418
403 241 -7.316333588908549
403 248 -6.449560149082089E-1
403 398 1.2451556814610854E-1
403 403 3.490094984720872E1
403 409 -1.7739557774860486E1
403 412 -2.65121213569679E-1
404 232 5.0117917893418
404 242 -7.316333588908549
404 399 1.2451556814610854E-1
404 404 3.490094984720872E1
404 410 -1.7739557774860486E1
404 413 -2.65121213569679E-1
404 441 -6.449560149082089E-1
405 233 5.0117917893418
405 243 -7.316333588908549
405 249 -6.449560149082089E-1
405 400 1.2451556814610854E-1
405 405 3.490094984720872E1
405 411 -1.7739557774860486E1
405 414 -2.65121213569679E-1
406 236 1.0156875293339824
406 241 -5.092203610875878
406 248 3.8956743557802835
406 398 -3.504587929149287
406 406 2.367970575262516E2
406 409 -1.8939010750524267E2
406 412 -8.593615009602047E-1
406 415 1.0657399641633546E1
406 434 4.5709651655539574E-1
406 442 1.4169604423929343
406 445 -1.8170448193624864
407 237 1.0156875293339824
407 242 -5.092203610875878
407 399 -3.504587929149287
407 407 2.367970575262516E2
407 410 -1.8939010750524267E2
407 413 -8.593615009602047E-1
407 416 1.0657399641633546E1
407 435 4.5709651655539574E-1
407 441 3.8956743557802835
407 443 1.4169604423929343
407 446 -1.8170448193624864
408 238 1.0156875293339824
408 243 -5.092203610875878
408 249 3.8956743557802835
408 400 -3.504587929149287
408 408 2.367970575262516E2
408 411 -1.8939010750524267E2
408 414 -8.593615009602047E-1
408 417 1.0657399641633546E1
408 436 4.5709651655539574E-1
408 444 1.4169604423929343
408 447 -1.8170448193624864
409 241 2.551907722246739
409 248 -7.332877200274849E-1
409 398 -2.703737640407504
409 403 -1.7739557774860714E1
409 406 -1.8939010750524312E2
409 409 2.1902421372856134E2
409 412 8.110256206676548
410 242 2.551907722246739
410 399 -2.703737640407504
410 404 -1.7739557774860714E1
410 407 -1.8939010750524312E2
410 410 2.1902421372856134E2
410 413 8.110256206676548
410 441 -7.332877200274849E-1
411 243 2.551907722246739
411 249 -7.332877200274849E-1
411 400 -2.703737640407504
411 405 -1.7739557774860714E1
411 408 -1.8939010750524312E2
411 411 2.1902421372856134E2
411 414 8.110256206676548
412 248 -3.495885350143499E1
412 380 1.9048657876701395E1
412 395 1.3667246987166898E1
412 396 -3.6560801845218535E1
412 398 -1.5435110123057327E-1
412 401 -1.665794453342432
412 403 -2.651212135697577E-1
412 406 -8.593615009587836E-1
412 409 8.110256206676375
412 412 2.585593509121034E2
412 415 1.6207883210333534E1
412 442 2.0692586503108682E1
412 445 -1.050263448719429
413 362 1.9048657876701395E1
413 374 -3.6560801845218535E1
413 399 -1.5435110123057327E-1
413 402 -1.665794453342432
413 404 -2.651212135697577E-1
413 407 -8.593615009587836E-1
413 410 8.110256206676375
413 413 2.585593509121034E2
413 416 1.6207883210333534E1
413 441 -3.495885350143499E1
413 443 2.0692586503108682E1
413 446 -1.050263448719429
413 453 1.3667246987166898E1
414 249 -3.495885350143499E1
414 363 1.9048657876701395E1
414 397 -3.6560801845218535E1
414 400 -1.5435110123057327E-1
414 405 -2.651212135697577E-1
414 408 -8.593615009587836E-1
414 411 8.110256206676375
414 414 2.585593509121034E2
414 417 1.6207883210333534E1
414 421 -1.665794453342432
414 444 2.0692586503108682E1
414 447 -1.050263448719429
414 454 1.3667246987166898E1
415 395 2.7956153831907216E-1
415 398 3.7507930209358733
415 401 4.43549943545019
415 406 1.0657399641633077E1
415 412 1.6207883210333534E1
415 415 6.745025664987082E1
415 434 -1.3612812090390655E1
415 445 6.593674318774447
416 399 3.7507930209358733
416 402 4.43549943545019
416 407 1.0657399641633077E1
416 413 1.6207883210333534E1
416 416 6.745025664987082E1
416 435 -1.3612812090390655E1
416 446 6.593674318774447
416 453 2.7956153831907216E-1
417 400 3.7507930209358733
417 408 1.0657399641633077E1
417 414 1.6207883210333534E1
417 417 6.745025664987082E1
417 421 4.43549943545019
417 436 -1.3612812090390655E1
417 447 6.593674318774447
417 454 2.7956153831907216E-1
418 375 -6.785465401020283E-1
418 376 7.765267088681875
418 392 4.528966483191235E-1
418 418 8.52655081312142
418 422 -2.3609409212552523E-1
418 431 -1.7825367129637917
418 434 -4.08942083322132
418 445 7.833808746268886
419 419 8.52655081312142
419 423 -2.3609409212552523E-1
419 432 -1.7825367129637917
419 435 -4.08942083322132
419 437 -6.785465401020283E-1
419 439 7.765267088681875
419 446 7.833808746268886
419 451 4.528966483191235E-1
420 420 8.52655081312142
420 424 -2.3609409212552523E-1
420 433 -1.7825367129637917
420 436 -4.08942083322132
420 438 -6.785465401020283E-1
420 440 7.765267088681875
420 447 7.833808746268886
420 452 4.528966483191235E-1
421 346 -6.0116951206709714
421 363 8.567377982965773
421 400 6.880869559049358E-1
421 414 -1.6657944533419347
421 417 4.435499435450403
421 421 2.1489722353217218E1
421 454 3.319470203200581E-2
422 392 -1.6028377265314822
422 418 -2.3609409212553234E-1
422 422 1.5252521728057005E1
422 425 1.315897204633005
422 428 -4.013799158565906E-1
422 431 -1.3896020808064474E1
422 448 2.7200966313500774
423 419 -2.3609409212553234E-1
423 423 1.5252521728057005E1
423 426 1.315897204633005
423 429 -4.013799158565906E-1
423 432 -1.3896020808064474E1
423 449 2.7200966313500774
423 451 -1.6028377265314822
424 420 -2.3609409212553234E-1
424 424 1.5252521728057005E1
424 427 1.315897204633005
424 430 -4.013799158565906E-1
424 433 -1.3896020808064474E1
424 450 2.7200966313500774
424 452 -1.6028377265314822
425 307 1.2883595775892953E-1
425 319 -4.598973224712854
425 324 -1.1800364658424133E1
425 422 1.3158972046329727
425 425 3.230504250227678E1
425 428 -3.0700039814669122E1
425 448 2.933479282246334
426 269 -4.598973224712854
426 308 1.2883595775892953E-1
426 325 -1.1800364658424133E1
426 423 1.3158972046329727
426 426 3.230504250227678E1
426 429 -3.0700039814669122E1
426 449 2.933479282246334
427 309 1.2883595775892953E-1
427 320 -4.598973224712854
427 326 -1.1800364658424133E1
427 424 1.3158972046329727
427 427 3.230504250227678E1
427 430 -3.0700039814669122E1
427 450 2.933479282246334
428 319 -1.5199022038790051E1
428 324 4.054770831059771
428 383 -1.0368310019515784E1
428 396 -4.5903991683285845
428 422 -4.013799158567145E-1
428 425 -3.0700039814668774E1
428 428 2.039810784591961E2
428 431 -3.549276549667396
428 442 -2.505754402370014E1
428 448 1.0103296380096385E1
429 269 -1.5199022038790051E1
429 274 -1.0368310019515784E1
429 325 4.054770831059771
429 374 -4.5903991683285845
429 423 -4.013799158567145E-1
429 426 -3.0700039814668774E1
429 429 2.039810784591961E2
429 432 -3.549276549667396
429 443 -2.505754402370014E1
429 449 1.0103296380096385E1
430 250 -1.0368310019515784E1
430 320 -1.5199022038790051E1
430 326 4.054770831059771
430 397 -4.5903991683285845
430 424 -4.013799158567145E-1
430 427 -3.0700039814668774E1
430 430 2.039810784591961E2
430 433 -3.549276549667396
430 444 -2.505754402370014E1
430 450 1.0103296380096385E1
431 392 4.9495665158955054E-1
431 418 -1.7825367129632221
431 422 -1.3896020808064574E1
431 428 -3.549276549666664
431 431 5.9603261594382E1
431 442 8.802239718114475
431 445 1.288997671938807
431 448 -9.988795022372981
432 419 -1.7825367129632221
432 423 -1.3896020808064574E1
432 429 -3.549276549666664
432 432 5.9603261594382E1
432 443 8.802239718114475
432 446 1.288997671938807
432 449 -9.988795022372981
432 451 4.9495665158955054E-1
433 420 -1.7825367129632221
433 424 -1.3896020808064574E1
433 430 -3.549276549666664
433 433 5.9603261594382E1
433 444 8.802239718114475
433 447 1.288997671938807
433 450 -9.988795022372981
433 452 4.9495665158955054E-1
434 376 1.8422256265927643
434 395 -1.0460899349346455
434 398 -4.20841223900436
434 406 4.570965165552252E-1
434 415 -1.3612812090390456E1
434 418 -4.089420833221281
434 434 4.1340902298979074E1
434 445 -2.141390886770276E1
435 399 -4.20841223900436
435 407 4.570965165552252E-1
435 416 -1.3612812090390456E1
435 419 -4.089420833221281
435 435 4.1340902298979074E1
435 439 1.8422256265927643
435 446 -2.141390886770276E1
435 453 -1.0460899349346455
436 400 -4.20841223900436
436 408 4.570965165552252E-1
436 417 -1.3612812090390456E1
436 420 -4.089420833221281
436 436 4.1340902298979074E1
436 440 1.8422256265927643
436 447 -2.141390886770276E1
436 454 -1.0460899349346455
437 351 2.7719372118792784
437 357 4.0565651219313885
437 368 -4.1803075234217975
437 419 -6.785465401019981E-1
437 437 4.4067638363713236E1
437 439 -2.9894809222146833E1
437 451 -1.2099559088272933
438 352 2.7719372118792784
438 358 4.0565651219313885
438 389 -4.1803075234217975
438 420 -6.785465401019981E-1
438 438 4.4067638363713236E1
438 440 -2.9894809222146833E1
438 452 -1.2099559088272933
439 357 4.3255573462052754E-1
439 368 5.213031164864595
439 419 7.765267088681882
439 435 1.8422256265928443
439 437 -2.989480922214669E1
439 439 1.1436617384302053E2
439 446 2.062484927302995E1
439 451 -2.9832081320405894E1
439 453 -4.499779688920285
440 358 4.3255573462052754E-1
440 389 5.213031164864595
440 420 7.765267088681882
440 436 1.8422256265928443
440 438 -2.989480922214669E1
440 440 1.1436617384302053E2
440 447 2.062484927302995E1
440 452 -2.9832081320405894E1
440 454 -4.499779688920285
441 232 7.909210272331734
441 237 -2.2566736681699602E1
441 242 -2.4366697263934327
441 270 -7.043198737629368
441 361 6.579247605336164
441 362 5.0869614082311045
441 374 -4.4032579822596865E1
441 404 -6.449560149082888E-1
441 407 3.895674355779626
441 410 -7.332877200275879E-1
441 413 -3.4958853501434874E1
441 441 1.5632659997472308E2
441 443 5.600292049460975E-1
442 236 -9.585958418219576
442 248 5.600292049458915E-1
442 383 -2.398451365188719
442 392 1.1458229198963437E1
442 395 2.3881356174219547E1
442 396 -7.7748913461497535
442 406 1.416960442393247
442 412 2.069258650310882E1
442 428 -2.5057544023697204E1
442 431 8.802239718114317
442 442 1.000191980424284E2
442 445 4.148775357563052
442 448 -2.0776792511238797
443 237 -9.585958418219576
443 274 -2.398451365188719
443 374 -7.7748913461497535
443 407 1.416960442393247
443 413 2.069258650310882E1
443 429 -2.5057544023697204E1
443 432 8.802239718114317
443 441 5.600292049458915E-1
443 443 1.000191980424284E2
443 446 4.148775357563052
443 449 -2.0776792511238797
443 451 1.1458229198963437E1
443 453 2.3881356174219547E1
444 238 -9.585958418219576
444 249 5.600292049458915E-1
444 250 -2.398451365188719
444 397 -7.7748913461497535
444 408 1.416960442393247
444 414 2.069258650310882E1
444 430 -2.5057544023697204E1
444 433 8.802239718114317
444 444 1.000191980424284E2
444 447 4.148775357563052
444 450 -2.0776792511238797
444 452 1.1458229198963437E1
444 454 2.3881356174219547E1
445 376 2.0624849273030065E1
445 392 4.9492640648418185
445 395 6.1300874747987315
445 406 -1.817044819362799
445 412 -1.0502634487201146
445 415 6.593674318773822
445 418 7.833808746268801
445 431 1.2889976719380254
445 434 -2.1413908867702787E1
445 442 4.148775357562853
445 445 1.1124588214912E2
446 407 -1.817044819362799
446 413 -1.0502634487201146
446 416 6.593674318773822
446 419 7.833808746268801
446 432 1.2889976719380254
446 435 -2.1413908867702787E1
446 439 2.0624849273030065E1
446 443 4.148775357562853
446 446 1.1124588214912E2
446 451 4.9492640648418185
446 453 6.1300874747987315
447 408 -1.817044819362799
447 414 -1.0502634487201146
447 417 6.593674318773822
447 420 7.833808746268801
447 433 1.2889976719380254
447 436 -2.1413908867702787E1
447 440 2.0624849273030065E1
447 444 4.148775357562853
447 447 1.1124588214912E2
447 452 4.9492640648418185
447 454 6.1300874747987315
448 324 -6.806923085786834
448 386 -2.770098566541194E1
448 388 -1.664214933396231E1
448 392 -2.7069888726716844E1
448 396 -2.2390945755641102E1
448 422 2.720096631349809
448 425 2.933479282246352
448 428 1.0103296380094825E1
448 431 -9.988795022373347
448 442 -2.0776792511249536
448 448 1.392407112148845E2
449 325 -6.806923085786834
449 367 -2.770098566541194E1
449 368 -1.664214933396231E1
449 374 -2.2390945755641102E1
449 423 2.720096631349809
449 426 2.933479282246352
449 429 1.0103296380094825E1
449 432 -9.988795022373347
449 443 -2.0776792511249536
449 449 1.392407112148845E2
449 451 -2.7069888726716844E1
450 326 -6.806923085786834
450 387 -2.770098566541194E1
450 389 -1.664214933396231E1
450 397 -2.2390945755641102E1
450 424 2.720096631349809
450 427 2.933479282246352
450 430 1.0103296380094825E1
450 433 -9.988795022373347
450 444 -2.0776792511249536
450 450 1.392407112148845E2
450 452 -2.7069888726716844E1
451 368 -1.8307312617260212E1
451 374 4.97451758467928
451 419 4.528966483194399E-1
451 423 -1.6028377265314075
451 432 4.9495665158956603E-1
451 437 -1.209955908827439
451 439 -2.9832081320405706E1
451 443 1.1458229198963622E1
451 446 4.949264064841934
451 449 -2.70698887267183E1
451 451 1.1648992675019835E2
451 453 -6.588388633207556
452 389 -1.8307312617260212E1
452 397 4.97451758467928
452 420 4.528966483194399E-1
452 424 -1.6028377265314075
452 433 4.9495665158956603E-1
452 438 -1.209955908827439
452 440 -2.9832081320405706E1
452 444 1.1458229198963622E1
452 447 4.949264064841934
452 450 -2.70698887267183E1
452 452 1.1648992675019835E2
452 454 -6.588388633207556
453 345 1.2650206035316698E1
453 357 5.0325373329115415
453 362 2.500520415875694E1
453 368 -6.914363839178991
453 372 -8.578697005833183
453 374 2.005638225327847E1
453 402 3.319470203217634E-2
453 413 1.3667246987166848E1
453 416 2.795615383187027E-1
453 435 -1.0460899349349084
453 439 -4.499779688921208
453 443 2.388135617421993E1
453 446 6.130087474797648
453 451 -6.58838863320697
453 453 2.0502520333369444E2
454 346 1.2650206035316698E1
454 358 5.0325373329115415
454 363 2.500520415875694E1
454 373 -8.578697005833183
454 389 -6.914363839178991
454 397 2.005638225327847E1
454 414 1.3667246987166848E1
454 417 2.795615383187027E-1
454 421 3.319470203217634E-2
454 436 -1.0460899349349084
454 440 -4.499779688921208
454 444 2.388135617421993E1
454 447 6.130087474797648
454 452 -6.58838863320697
454 454 2.0502520333369444E2
455 455 1.5709346974899404E1
455 458 -8.45967427964922E-3
455 465 6.97758050705437
455 468 9.720693858795926E-3
455 482 -3.6167629122938547
455 485 1.2722099036087684
455 517 9.720693884787579E-3
456 456 1.5709346974899404E1
456 459 -8.45967427964922E-3
456 464 9.720693884787579E-3
456 466 6.97758050705437
456 469 9.720693858795926E-3
456 483 -3.6167629122938547
456 486 1.2722099036087684
457 457 1.5709346974899404E1
457 460 -8.45967427964922E-3
457 467 6.97758050705437
457 470 9.720693858795926E-3
457 484 -3.6167629122938547
457 487 1.2722099036087684
457 518 9.720693884787579E-3
458 455 -8.459674279819751E-3
458 458 4.654136906541264E1
458 461 -1.781555091664474E1
458 471 -3.58226035511305
458 474 8.797863640004422
458 482 3.7314286893736853E-1
458 485 -1.0334006520433832
458 494 4.298732461957156
458 527 -5.1460147676522086
458 648 7.11109374997635
458 655 -3.3639515712985713
458 675 -1.6793699923430758E1
458 681 1.0025768654059746E1
459 456 -8.459674279819751E-3
459 459 4.654136906541264E1
459 462 -1.781555091664474E1
459 472 -3.58226035511305
459 475 8.797863640004422
459 477 4.298732461957156
459 478 -5.1460147676522086
459 483 3.7314286893736853E-1
459 486 -1.0334006520433832
459 649 7.11109374997635
459 656 -3.3639515712985713
459 676 -1.6793699923430758E1
459 682 1.0025768654059746E1
460 457 -8.459674279819751E-3
460 460 4.654136906541264E1
460 463 -1.781555091664474E1
460 473 -3.58226035511305
460 476 8.797863640004422
460 484 3.7314286893736853E-1
460 487 -1.0334006520433832
460 495 4.298732461957156
460 496 -5.1460147676522086
460 650 7.11109374997635
460 657 -3.3639515712985713
460 677 -1.6793699923430758E1
460 683 1.0025768654059746E1
461 458 -1.7815550916645904E1
461 461 4.884431542028856E1
461 471 -2.6418822888705744
461 488 3.1080326054956227
461 491 8.591808596845965
461 494 3.2235456909368514
461 499 4.1884667868208975E-1
461 505 -1.4276168769368724
461 508 -5.892835067638998
461 511 -1.988867352097497
461 655 -2.424856915175031E-1
461 672 2.559970274306757
461 675 2.2897528814720287
461 681 -2.6327339777471677
462 459 -1.7815550916645904E1
462 462 4.884431542028856E1
462 472 -2.6418822888705744
462 477 3.2235456909368514
462 479 4.1884667868208975E-1
462 489 3.1080326054956227
462 492 8.591808596845965
462 506 -1.4276168769368724
462 509 -5.892835067638998
462 512 -1.988867352097497
462 656 -2.424856915175031E-1
462 673 2.559970274306757
462 676 2.2897528814720287
462 682 -2.6327339777471677
463 460 -1.7815550916645904E1
463 463 4.884431542028856E1
463 473 -2.6418822888705744
463 490 3.1080326054956227
463 493 8.591808596845965
463 495 3.2235456909368514
463 500 4.1884667868208975E-1
463 507 -1.4276168769368724
463 510 -5.892835067638998
463 513 -1.988867352097497
463 657 -2.424856915175031E-1
463 674 2.559970274306757
463 677 2.2897528814720287
463 683 -2.6327339777471677
464 456 9.720693884560205E-3
464 464 3.3588611457678155E1
464 466 -5.93138796597259E-3
464 478 -1.0638119628542455E1
464 486 -2.569882308019544
464 515 1.5585520763264498
464 525 1.2849332574431216
464 539 4.227632554036745
465 455 6.977580507054995
465 465 7.551362778833823E1
465 468 5.31248513490258E-1
465 474 1.3939449144609092E1
465 482 -2.488323476544309
465 485 1.2143197436307673E-1
465 517 -5.931387966541024E-3
465 519 -1.5801077716326741
465 527 4.679030236172153
465 538 6.104733635395281E-1
465 581 1.8062832828535896E1
465 612 -2.9805388345203623
466 456 6.977580507054995
466 464 -5.931387966541024E-3
466 466 7.551362778833823E1
466 469 5.31248513490258E-1
466 475 1.3939449144609092E1
466 478 4.679030236172153
466 481 -2.9805388345203623
466 483 -2.488323476544309
466 486 1.2143197436307673E-1
466 520 -1.5801077716326741
466 539 6.104733635395281E-1
466 547 1.8062832828535896E1
467 457 6.977580507054995
467 467 7.551362778833823E1
467 470 5.31248513490258E-1
467 476 1.3939449144609092E1
467 484 -2.488323476544309
467 487 1.2143197436307673E-1
467 496 4.679030236172153
467 518 -5.931387966541024E-3
467 540 6.104733635395281E-1
467 555 -1.5801077716326741
467 582 1.8062832828535896E1
467 613 -2.9805388345203623
468 455 9.72069385888119E-3
468 465 5.312485134895759E-1
468 468 2.594459322343201E1
468 474 -1.0326833647764033E1
468 482 -4.059033590648369
468 586 1.563016704092064
468 595 -5.343572789997779E-1
468 612 -8.243036225707954E-1
469 456 9.72069385888119E-3
469 466 5.312485134895759E-1
469 469 2.594459322343201E1
469 475 -1.0326833647764033E1
469 481 -8.243036225707954E-1
469 483 -4.059033590648369
469 587 1.563016704092064
469 596 -5.343572789997779E-1
470 457 9.72069385888119E-3
470 467 5.312485134895759E-1
470 470 2.594459322343201E1
470 476 -1.0326833647764033E1
470 484 -4.059033590648369
470 588 1.563016704092064
470 597 -5.343572789997779E-1
470 613 -8.243036225707954E-1
471 458 -3.5822603551130925
471 461 -2.641882288870565
471 471 2.1320676534652003E2
471 474 -3.672541236010511E1
471 491 -1.3640327706464743E2
471 494 -4.3070362327039796E1
471 581 -1.072307058198299E1
471 590 3.0998402785415433E1
471 595 -3.492004770179878E1
471 602 7.163623496994197E-1
471 655 -3.779116557391376
471 658 -8.400483630914096
472 459 -3.5822603551130925
472 462 -2.641882288870565
472 472 2.1320676534652003E2
472 475 -3.672541236010511E1
472 477 -4.3070362327039796E1
472 492 -1.3640327706464743E2
472 547 -1.072307058198299E1
472 591 3.0998402785415433E1
472 596 -3.492004770179878E1
472 603 7.163623496994197E-1
472 656 -3.779116557391376
472 659 -8.400483630914096
473 460 -3.5822603551130925
473 463 -2.641882288870565
473 473 2.1320676534652003E2
473 476 -3.672541236010511E1
473 493 -1.3640327706464743E2
473 495 -4.3070362327039796E1
473 582 -1.072307058198299E1
473 592 3.0998402785415433E1
473 597 -3.492004770179878E1
473 598 -8.400483630914096
473 604 7.163623496994197E-1
473 657 -3.779116557391376
474 458 8.797863640004493
474 465 1.3939449144609107E1
474 468 -1.0326833647764545E1
474 471 -3.6725412360105906E1
474 474 2.3298114928625208E2
474 482 3.777316251904807
474 485 6.866701522704908
474 494 1.9478057905537465
474 527 -3.55291927852254E1
474 581 4.289468576315234E1
474 595 -6.075964596594115
474 612 5.491046865543735
475 459 8.797863640004493
475 466 1.3939449144609107E1
475 469 -1.0326833647764545E1
475 472 -3.6725412360105906E1
475 475 2.3298114928625208E2
475 477 1.9478057905537465
475 478 -3.55291927852254E1
475 481 5.491046865543735
475 483 3.777316251904807
475 486 6.866701522704908
475 547 4.289468576315234E1
475 596 -6.075964596594115
476 460 8.797863640004493
476 467 1.3939449144609107E1
476 470 -1.0326833647764545E1
476 473 -3.6725412360105906E1
476 476 2.3298114928625208E2
476 484 3.777316251904807
476 487 6.866701522704908
476 495 1.9478057905537465
476 496 -3.55291927852254E1
476 582 4.289468576315234E1
476 597 -6.075964596594115
476 613 5.491046865543735
477 459 4.298732461954926
477 462 3.2235456909359597
477 472 -4.3070362327039575E1
477 475 1.9478057905537673
477 477 5.932478972042094E2
477 478 -2.8297826952443955E2
477 479 -2.0773638121692056E2
477 492 2.6188294907377553E1
477 506 1.6823316436295386E1
477 522 -1.8541187528596872E1
477 533 6.3203467431406715
477 547 -3.821010728001539E1
477 549 4.215783638167918E1
478 459 -5.146014767652385
478 464 -1.0638119628541858E1
478 466 4.679030236173084
478 475 -3.552919278522463E1
478 477 -2.8297826952444E2
478 478 2.9163253772453663E2
478 486 -2.951792248198656E1
478 522 6.288287935886102
478 525 -4.038650878773661E1
478 539 -1.7424564011593517
478 547 1.5372623074976758E1
478 549 -2.946170943620569E1
479 462 4.188466786804996E-1
479 477 -2.0773638121691948E2
479 479 3.758984411670714E2
479 503 -4.2308431814689605E1
479 506 -2.926961219134562E1
479 509 -2.075554348501711E1
479 531 -1.984752297065079E1
479 533 -1.4719271805391895E1
479 545 2.7683427452614215E1
479 547 1.4685086274052308E1
479 549 9.586432426799838
480 480 2.52499916773888E2
480 488 -4.875843826437861E-1
480 497 7.902137718072629
480 499 -4.230843181469049E1
480 505 1.8673847592875592E1
480 508 4.325683966059653
480 511 3.9120265668962624
480 544 -5.503274909573677E1
480 559 -7.34862112074407
480 565 1.4697869419807834E1
480 576 -1.948786409101226E1
480 581 1.3434926742071172E1
481 466 -2.9805388345194173
481 469 -8.243036225718186E-1
481 475 5.491046865543675
481 481 5.362869157460104E1
481 520 1.684236988384562
481 547 -1.7514861340575855E1
481 587 1.0093662636263275E1
481 596 -1.824210350538007E1
481 610 -4.147196543423586
482 455 -3.6167629122935523
482 458 3.731428689380891E-1
482 465 -2.4883234765456734
482 468 -4.059033590648056
482 474 3.7773162519032155
482 482 2.8002382932561524E1
482 485 2.6661594099193695
483 456 -3.6167629122935523
483 459 3.731428689380891E-1
483 466 -2.4883234765456734
483 469 -4.059033590648056
483 475 3.7773162519032155
483 483 2.8002382932561524E1
483 486 2.6661594099193695
484 457 -3.6167629122935523
484 460 3.731428689380891E-1
484 467 -2.4883234765456734
484 470 -4.059033590648056
484 476 3.7773162519032155
484 484 2.8002382932561524E1
484 487 2.6661594099193695
485 455 1.272209903608342
485 458 -1.03340065204452
485 465 1.2143197436182618E-1
485 474 6.866701522705419
485 482 2.6661594099175505
485 485 5.3020529056220596E1
485 517 -2.5698823080190323
485 527 -2.9517922481984627E1
486 456 1.272209903608342
486 459 -1.03340065204452
486 464 -2.5698823080190323
486 466 1.2143197436182618E-1
486 475 6.866701522705419
486 478 -2.9517922481984627E1
486 483 2.6661594099175505
486 486 5.3020529056220596E1
487 457 1.272209903608342
487 460 -1.03340065204452
487 467 1.2143197436182618E-1
487 476 6.866701522705419
487 484 2.6661594099175505
487 487 5.3020529056220596E1
487 496 -2.9517922481984627E1
487 518 -2.5698823080190323
488 461 3.1080326054953624
488 480 -4.8758438264465387E-1
488 488 2.947751392368872E1
488 497 2.5574746240324995
488 508 4.283572209970089
488 511 -1.3105996886879932E1
488 559 8.898838934411566
489 462 3.1080326054953624
489 489 2.947751392368872E1
489 501 8.898838934411566
489 503 -4.8758438264465387E-1
489 509 4.283572209970089
489 512 -1.3105996886879932E1
489 531 2.5574746240324995
490 463 3.1080326054953624
490 490 2.947751392368872E1
490 498 2.5574746240324995
490 502 8.898838934411566
490 504 -4.8758438264465387E-1
490 510 4.283572209970089
490 513 -1.3105996886879932E1
491 461 8.591808596845283
491 471 -1.364032770646472E2
491 491 5.149195386823678E2
491 494 2.6188294907377212E1
491 505 -3.192862268264447E2
491 581 -3.0748877868325422E1
491 602 1.4618875015766594E1
491 605 8.316236071992066
491 655 -9.358073741299748
491 658 -1.3425736981981432E1
491 681 7.833390174830939E-1
491 711 1.305046137750086E1
492 462 8.591808596845283
492 472 -1.364032770646472E2
492 477 2.6188294907377212E1
492 492 5.149195386823678E2
492 506 -3.192862268264447E2
492 547 -3.0748877868325422E1
492 603 1.4618875015766594E1
492 606 8.316236071992066
492 656 -9.358073741299748
492 659 -1.3425736981981432E1
492 671 1.305046137750086E1
492 682 7.833390174830939E-1
493 463 8.591808596845283
493 473 -1.364032770646472E2
493 493 5.149195386823678E2
493 495 2.6188294907377212E1
493 507 -3.192862268264447E2
493 582 -3.0748877868325422E1
493 598 -1.3425736981981432E1
493 604 1.4618875015766594E1
493 607 8.316236071992066
493 657 -9.358073741299748
493 683 7.833390174830939E-1
493 712 1.305046137750086E1
494 458 4.298732461954926
494 461 3.2235456909359597
494 471 -4.3070362327039575E1
494 474 1.9478057905537673
494 491 2.6188294907377553E1
494 494 5.932478972042094E2
494 499 -2.0773638121692056E2
494 505 1.6823316436295386E1
494 521 -1.8541187528596872E1
494 527 -2.8297826952443955E2
494 532 6.3203467431406715
494 548 4.215783638167918E1
494 581 -3.821010728001539E1
495 460 4.298732461954926
495 463 3.2235456909359597
495 473 -4.3070362327039575E1
495 476 1.9478057905537673
495 493 2.6188294907377553E1
495 495 5.932478972042094E2
495 496 -2.8297826952443955E2
495 500 -2.0773638121692056E2
495 507 1.6823316436295386E1
495 523 -1.8541187528596872E1
495 534 6.3203467431406715
495 550 4.215783638167918E1
495 582 -3.821010728001539E1
496 460 -5.146014767652385
496 467 4.679030236173084
496 476 -3.552919278522463E1
496 487 -2.951792248198656E1
496 495 -2.8297826952444E2
496 496 2.9163253772453663E2
496 518 -1.0638119628541858E1
496 523 6.288287935886102
496 526 -4.038650878773661E1
496 540 -1.7424564011593517
496 550 -2.946170943620569E1
496 582 1.5372623074976758E1
497 480 7.902137718072632
497 488 2.557474624032759
497 497 5.027229873784311E1
497 499 -1.9847522970651173E1
497 508 1.2676294549963435E1
497 528 -1.357825369266235
497 532 2.0499304795888605E1
497 544 -7.5574863958635365
498 490 2.557474624032759
498 498 5.027229873784311E1
498 500 -1.9847522970651173E1
498 504 7.902137718072632
498 510 1.2676294549963435E1
498 530 -1.357825369266235
498 534 2.0499304795888605E1
498 546 -7.5574863958635365
499 461 4.188466786804996E-1
499 480 -4.2308431814689605E1
499 494 -2.0773638121691948E2
499 497 -1.984752297065079E1
499 499 3.758984411670714E2
499 505 -2.926961219134562E1
499 508 -2.075554348501711E1
499 532 -1.4719271805391895E1
499 544 2.7683427452614215E1
499 548 9.586432426799838
499 581 1.4685086274052308E1
500 463 4.188466786804996E-1
500 495 -2.0773638121691948E2
500 498 -1.984752297065079E1
500 500 3.758984411670714E2
500 504 -4.2308431814689605E1
500 507 -2.926961219134562E1
500 510 -2.075554348501711E1
500 534 -1.4719271805391895E1
500 546 2.7683427452614215E1
500 550 9.586432426799838
500 582 1.4685086274052308E1
501 489 8.898838934411591
501 501 3.9608737667670155E1
501 503 -7.3486211207443315
501 506 2.8752654884830493
501 512 -4.106418823405931
501 557 -1.357825369353172
501 577 1.2274131420936044E1
501 606 1.4319713695927359
502 490 8.898838934411591
502 502 3.9608737667670155E1
502 504 -7.3486211207443315
502 507 2.8752654884830493
502 513 -4.106418823405931
502 558 -1.357825369353172
502 578 1.2274131420936044E1
502 607 1.4319713695927359
503 479 -4.230843181469049E1
503 489 -4.875843826437861E-1
503 501 -7.34862112074407
503 503 2.52499916773888E2
503 506 1.8673847592875592E1
503 509 4.325683966059653
503 512 3.9120265668962624
503 531 7.902137718072629
503 545 -5.503274909573677E1
503 547 1.3434926742071172E1
503 566 1.4697869419807834E1
503 577 -1.948786409101226E1
504 490 -4.875843826437861E-1
504 498 7.902137718072629
504 500 -4.230843181469049E1
504 502 -7.34862112074407
504 504 2.52499916773888E2
504 507 1.8673847592875592E1
504 510 4.325683966059653
504 513 3.9120265668962624
504 546 -5.503274909573677E1
504 567 1.4697869419807834E1
504 578 -1.948786409101226E1
504 582 1.3434926742071172E1
505 461 -1.427616876935686
505 480 1.867384759287628E1
505 491 -3.1928622682644607E2
505 494 1.6823316436295272E1
505 499 -2.926961219134487E1
505 505 4.348981271639122E2
505 508 -4.517608919485779
505 511 -3.953047680690977
505 559 2.8752654884827225
505 576 4.1695122772951834E1
505 581 2.1308241701447702E1
505 605 -1.6974416539402032E1
506 462 -1.427616876935686
506 477 1.6823316436295272E1
506 479 -2.926961219134487E1
506 492 -3.1928622682644607E2
506 501 2.8752654884827225
506 503 1.867384759287628E1
506 506 4.348981271639122E2
506 509 -4.517608919485779
506 512 -3.953047680690977
506 547 2.1308241701447702E1
506 577 4.1695122772951834E1
506 606 -1.6974416539402032E1
507 463 -1.427616876935686
507 493 -3.1928622682644607E2
507 495 1.6823316436295272E1
507 500 -2.926961219134487E1
507 502 2.8752654884827225
507 504 1.867384759287628E1
507 507 4.348981271639122E2
507 510 -4.517608919485779
507 513 -3.953047680690977
507 578 4.1695122772951834E1
507 582 2.1308241701447702E1
507 607 -1.6974416539402032E1
508 461 -5.8928350676389885
508 480 4.325683966060293
508 488 4.28357220996826
508 497 1.267629454996347E1
508 499 -2.0755543485021047E1
508 505 -4.517608919485522
508 508 7.378080393688833E1
508 511 -8.102508983893307
509 462 -5.8928350676389885
509 479 -2.0755543485021047E1
509 489 4.28357220996826
509 503 4.325683966060293
509 506 -4.517608919485522
509 509 7.378080393688833E1
509 512 -8.102508983893307
509 531 1.267629454996347E1
510 463 -5.8928350676389885
510 490 4.28357220996826
510 498 1.267629454996347E1
510 500 -2.0755543485021047E1
510 504 4.325683966060293
510 507 -4.517608919485522
510 510 7.378080393688833E1
510 513 -8.102508983893307
511 461 -1.988867352097659
511 480 3.912026566895573
511 488 -1.310599688687968E1
511 505 -3.953047680692114
511 508 -8.102508983893307
511 511 3.4817907867049136E1
511 559 -4.106418823404836
512 462 -1.988867352097659
512 489 -1.310599688687968E1
512 501 -4.106418823404836
512 503 3.912026566895573
512 506 -3.953047680692114
512 509 -8.102508983893307
512 512 3.4817907867049136E1
513 463 -1.988867352097659
513 490 -1.310599688687968E1
513 502 -4.106418823404836
513 504 3.912026566895573
513 507 -3.953047680692114
513 510 -8.102508983893307
513 513 3.4817907867049136E1
514 252 2.8087618549785844
514 266 -8.235596817789002
514 514 3.053751269806388E1
514 517 1.5585520763271035
514 524 -1.090742983658376E1
514 535 8.377430916862897
514 538 1.0033791827482105E1
515 253 2.8087618549785844
515 267 -8.235596817789002
515 464 1.5585520763271035
515 515 3.053751269806388E1
515 525 -1.090742983658376E1
515 536 8.377430916862897
515 539 1.0033791827482105E1
516 254 2.8087618549785844
516 268 -8.235596817789002
516 516 3.053751269806388E1
516 518 1.5585520763271035
516 526 -1.090742983658376E1
516 537 8.377430916862897
516 540 1.0033791827482105E1
517 455 9.720693884560205E-3
517 465 -5.93138796597259E-3
517 485 -2.569882308019544
517 514 1.5585520763264498
517 517 3.3588611457678155E1
517 524 1.2849332574431216
517 527 -1.0638119628542455E1
517 538 4.227632554036745
518 457 9.720693884560205E-3
518 467 -5.93138796597259E-3
518 487 -2.569882308019544
518 496 -1.0638119628542455E1
518 516 1.5585520763264498
518 518 3.3588611457678155E1
518 526 1.2849332574431216
518 540 4.227632554036745
519 465 -1.5801077716326883
519 519 1.3131969551599053E2
519 535 4.367318131064472
519 538 -1.2993295108179877E1
519 548 -4.803995772087635
519 552 1.075041185922781E1
519 581 3.063898352141564
519 609 6.0010384310565215
519 612 1.6842369883844484
520 466 -1.5801077716326883
520 481 1.6842369883844484
520 520 1.3131969551599053E2
520 536 4.367318131064472
520 539 -1.2993295108179877E1
520 547 3.063898352141564
520 549 -4.803995772087635
520 553 1.075041185922781E1
520 610 6.0010384310565215
521 259 -3.223785502188381
521 494 -1.854118752859748E1
521 521 1.095475643741675E2
521 524 -5.73735910194315E1
521 527 6.2882879358864034
521 532 -4.030517171826388E1
521 541 1.1636492732069215
521 548 3.6160879019057707E-1
522 260 -3.223785502188381
522 477 -1.854118752859748E1
522 478 6.2882879358864034
522 522 1.095475643741675E2
522 525 -5.73735910194315E1
522 533 -4.030517171826388E1
522 542 1.1636492732069215
522 549 3.6160879019057707E-1
523 261 -3.223785502188381
523 495 -1.854118752859748E1
523 496 6.2882879358864034
523 523 1.095475643741675E2
523 526 -5.73735910194315E1
523 534 -4.030517171826388E1
523 543 1.1636492732069215
523 550 3.6160879019057707E-1
524 259 -5.686477259494664
524 266 -1.595342467555372E1
524 514 -1.090742983658427E1
524 517 1.2849332574424785
524 521 -5.73735910194315E1
524 524 2.600673576390958E2
524 527 -4.0386508787735615E1
524 535 -2.111489640779503
524 538 -9.145051576436344
524 548 1.9700579054627325
525 260 -5.686477259494664
525 267 -1.595342467555372E1
525 464 1.2849332574424785
525 478 -4.0386508787735615E1
525 515 -1.090742983658427E1
525 522 -5.73735910194315E1
525 525 2.600673576390958E2
525 536 -2.111489640779503
525 539 -9.145051576436344
525 549 1.9700579054627325
526 261 -5.686477259494664
526 268 -1.595342467555372E1
526 496 -4.0386508787735615E1
526 516 -1.090742983658427E1
526 518 1.2849332574424785
526 523 -5.73735910194315E1
526 526 2.600673576390958E2
526 537 -2.111489640779503
526 540 -9.145051576436344
526 550 1.9700579054627325
527 458 -5.146014767652385
527 465 4.679030236173084
527 474 -3.552919278522463E1
527 485 -2.951792248198656E1
527 494 -2.8297826952444E2
527 517 -1.0638119628541858E1
527 521 6.288287935886102
527 524 -4.038650878773661E1
527 527 2.9163253772453663E2
527 538 -1.7424564011593517
527 548 -2.946170943620569E1
527 581 1.5372623074976758E1
528 310 -5.538725044825514E-1
528 313 -3.509081094300946E1
528 329 -1.4437417070835394E1
528 497 -1.3578253692659294
528 528 4.756975024225024E1
528 532 -2.518006750881956E1
528 544 -4.095216052625076E1
528 548 1.5056917483640587E1
529 311 -5.538725044825514E-1
529 314 -3.509081094300946E1
529 330 -1.4437417070835394E1
529 529 4.756975024225024E1
529 531 -1.3578253692659294
529 533 -2.518006750881956E1
529 545 -4.095216052625076E1
529 549 1.5056917483640587E1
530 312 -5.538725044825514E-1
530 315 -3.509081094300946E1
530 331 -1.4437417070835394E1
530 498 -1.3578253692659294
530 530 4.756975024225024E1
530 534 -2.518006750881956E1
530 546 -4.095216052625076E1
530 550 1.5056917483640587E1
531 479 -1.9847522970651173E1
531 489 2.557474624032759
531 503 7.902137718072632
531 509 1.2676294549963435E1
531 529 -1.357825369266235
531 531 5.027229873784311E1
531 533 2.0499304795888605E1
531 545 -7.5574863958635365
532 313 1.895283760034915E1
532 494 6.3203467431407265
532 497 2.0499304795888268E1
532 499 -1.4719271805392067E1
532 521 -4.0305171718264276E1
532 528 -2.518006750882195E1
532 532 1.7043123703214292E2
532 541 -1.0005022734264202E1
532 544 -4.487163436266513
532 548 -1.4903735121650383E1
533 314 1.895283760034915E1
533 477 6.3203467431407265
533 479 -1.4719271805392067E1
533 522 -4.0305171718264276E1
533 529 -2.518006750882195E1
533 531 2.0499304795888268E1
533 533 1.7043123703214292E2
533 542 -1.0005022734264202E1
533 545 -4.487163436266513
533 549 -1.4903735121650383E1
534 315 1.895283760034915E1
534 495 6.3203467431407265
534 498 2.0499304795888268E1
534 500 -1.4719271805392067E1
534 523 -4.0305171718264276E1
534 530 -2.518006750882195E1
534 534 1.7043123703214292E2
534 543 -1.0005022734264202E1
534 546 -4.487163436266513
534 550 -1.4903735121650383E1
535 252 9.271768779674062
535 266 -2.1059229990669515E1
535 271 -1.8997097176952806
535 285 1.7853681283096403
535 339 3.227512715434007E1
535 514 8.37743091686299
535 519 4.367318131065268
535 524 -2.111489640779517
535 535 1.2936040105800015E2
535 538 -1.10942213312582
535 548 1.2206903195443502E1
535 552 8.302546219172138
536 253 9.271768779674062
536 267 -2.1059229990669515E1
536 272 -1.8997097176952806
536 286 1.7853681283096403
536 340 3.227512715434007E1
536 515 8.37743091686299
536 520 4.367318131065268
536 525 -2.111489640779517
536 536 1.2936040105800015E2
536 539 -1.10942213312582
536 549 1.2206903195443502E1
536 553 8.302546219172138
537 254 9.271768779674062
537 268 -2.1059229990669515E1
537 273 -1.8997097176952806
537 287 1.7853681283096403
537 341 3.227512715434007E1
537 516 8.37743091686299
537 526 -2.111489640779517
537 537 1.2936040105800015E2
537 540 -1.10942213312582
537 550 1.2206903195443502E1
537 554 8.302546219172138
537 555 4.367318131065268
538 465 6.104733635385617E-1
538 514 1.0033791827482673E1
538 517 4.227632554037541
538 519 -1.2993295108179252E1
538 524 -9.145051576438476
538 527 -1.7424564011600054
538 535 -1.1094221331275822
538 538 9.533875588574756E1
538 548 -5.62873541683428
538 581 2.47408222770237E1
539 464 4.227632554037541
539 466 6.104733635385617E-1
539 478 -1.7424564011600054
539 515 1.0033791827482673E1
539 520 -1.2993295108179252E1
539 525 -9.145051576438476
539 536 -1.1094221331275822
539 539 9.533875588574756E1
539 547 2.47408222770237E1
539 549 -5.62873541683428
540 467 6.104733635385617E-1
540 496 -1.7424564011600054
540 516 1.0033791827482673E1
540 518 4.227632554037541
540 526 -9.145051576438476
540 537 -1.1094221331275822
540 540 9.533875588574756E1
540 550 -5.62873541683428
540 555 -1.2993295108179252E1
540 582 2.47408222770237E1
541 259 -2.814945813559968E1
541 313 -4.649796276984928E1
541 339 2.2615803798154545E1
541 521 1.1636492732057846
541 532 -1.0005022734263989E1
541 541 1.0925629174813584E2
541 548 -2.3238560586829998E1
542 260 -2.814945813559968E1
542 314 -4.649796276984928E1
542 340 2.2615803798154545E1
542 522 1.1636492732057846
542 533 -1.0005022734263989E1
542 542 1.0925629174813584E2
542 549 -2.3238560586829998E1
543 261 -2.814945813559968E1
543 315 -4.649796276984928E1
543 341 2.2615803798154545E1
543 523 1.1636492732057846
543 534 -1.0005022734263989E1
543 543 1.0925629174813584E2
543 550 -2.3238560586829998E1
544 329 7.393836672328817
544 480 -5.503274909573651E1
544 497 -7.557486395863091
544 499 2.768342745261362E1
544 528 -4.0952160526249706E1
544 532 -4.48716343626619
544 544 2.3180453697624264E2
544 548 -1.4700613238223859E1
544 565 -7.54056720635554
544 581 7.451054740832263
545 330 7.393836672328817
545 479 2.768342745261362E1
545 503 -5.503274909573651E1
545 529 -4.0952160526249706E1
545 531 -7.557486395863091
545 533 -4.48716343626619
545 545 2.3180453697624264E2
545 547 7.451054740832263
545 549 -1.4700613238223859E1
545 566 -7.54056720635554
546 331 7.393836672328817
546 498 -7.557486395863091
546 500 2.768342745261362E1
546 504 -5.503274909573651E1
546 530 -4.0952160526249706E1
546 534 -4.48716343626619
546 546 2.3180453697624264E2
546 550 -1.4700613238223859E1
546 567 -7.54056720635554
546 582 7.451054740832263
547 466 1.806283282853449E1
547 472 -1.072307058198299E1
547 475 4.2894685763151145E1
547 477 -3.821010728001592E1
547 478 1.5372623074975486E1
547 479 1.4685086274052715E1
547 481 -1.75148613405754E1
547 492 -3.074887786832518E1
547 503 1.3434926742070632E1
547 506 2.1308241701445866E1
547 520 3.063898352140825
547 539 2.474082227702177E1
547 545 7.451054740831587
547 547 3.316254658040802E2
547 549 -3.623979978383977E1
547 553 4.540556742863459E1
547 563 7.534798721552947E1
547 566 -2.3368905127500508E1
547 574 -1.6657308303084545E1
547 577 5.438555273077732
547 584 -3.939275542638572E1
547 591 1.9604059443323795E1
547 596 9.83473880178223
547 603 -3.827221018305355E1
547 606 1.5990465834295229
547 610 -1.6333719580906436E1
547 640 5.794821387564956E-1
548 259 2.838092483283404
548 266 -1.877097801875884E1
548 313 4.260722368057149
548 329 3.76837690948469
548 339 -1.0328590078981831E2
548 494 4.2157836381680006E1
548 499 9.586432426799727
548 519 -4.80399577208707
548 521 3.6160879019053105E-1
548 524 1.970057905461275
548 527 -2.946170943620521E1
548 528 1.5056917483638571E1
548 532 -1.490373512165019E1
548 535 1.2206903195442635E1
548 538 -5.628735416831461
548 541 -2.323856058683001E1
548 544 -1.4700613238224056E1
548 548 4.718758326255911E2
548 552 -4.079685398443554E1
548 562 8.28268822300218E1
548 565 2.295164685044482E1
548 581 -3.6239799783844035E1
548 583 4.149627721678999E1
549 260 2.838092483283404
549 267 -1.877097801875884E1
549 314 4.260722368057149
549 330 3.76837690948469
549 340 -1.0328590078981831E2
549 477 4.2157836381680006E1
549 478 -2.946170943620521E1
549 479 9.586432426799727
549 520 -4.80399577208707
549 522 3.6160879019053105E-1
549 525 1.970057905461275
549 529 1.5056917483638571E1
549 533 -1.490373512165019E1
549 536 1.2206903195442635E1
549 539 -5.628735416831461
549 542 -2.323856058683001E1
549 545 -1.4700613238224056E1
549 547 -3.6239799783844035E1
549 549 4.718758326255911E2
549 553 -4.079685398443554E1
549 563 8.28268822300218E1
549 566 2.295164685044482E1
549 584 4.149627721678999E1
550 261 2.838092483283404
550 268 -1.877097801875884E1
550 315 4.260722368057149
550 331 3.76837690948469
550 341 -1.0328590078981831E2
550 495 4.2157836381680006E1
550 496 -2.946170943620521E1
550 500 9.586432426799727
550 523 3.6160879019053105E-1
550 526 1.970057905461275
550 530 1.5056917483638571E1
550 534 -1.490373512165019E1
550 537 1.2206903195442635E1
550 540 -5.628735416831461
550 543 -2.323856058683001E1
550 546 -1.4700613238224056E1
550 550 4.718758326255911E2
550 554 -4.079685398443554E1
550 555 -4.80399577208707
550 564 8.28268822300218E1
550 567 2.295164685044482E1
550 582 -3.6239799783844035E1
550 585 4.149627721678999E1
551 30 2.956319776407227
551 43 1.8033182754637902E1
551 286 3.052106550848684
551 292 1.8803078440758938
551 301 -9.301245260939673
551 551 1.0239658769987466E2
551 553 6.82336492119245
551 584 -1.7370626280149196E1
551 608 6.637222085678573
552 31 6.823364921191853
552 285 -1.1028601998539557E1
552 339 1.4959418624478747E1
552 519 1.0750411859227569E1
552 535 8.302546219170049
552 548 -4.079685398443579E1
552 552 2.65465198853389E2
552 568 -4.198629598107891
552 581 4.5405567428634356E1
552 583 7.993055415664685E-2
552 609 -8.538064846164175
553 286 -1.1028601998539557E1
553 340 1.4959418624478747E1
553 520 1.0750411859227569E1
553 536 8.302546219170049
553 547 4.5405567428634356E1
553 549 -4.079685398443579E1
553 551 6.823364921191853
553 553 2.65465198853389E2
553 584 7.993055415664685E-2
553 608 -4.198629598107891
553 610 -8.538064846164175
554 280 6.823364921191853
554 287 -1.1028601998539557E1
554 341 1.4959418624478747E1
554 537 8.302546219170049
554 550 -4.079685398443579E1
554 554 2.65465198853389E2
554 555 1.0750411859227569E1
554 569 -4.198629598107891
554 582 4.5405567428634356E1
554 585 7.993055415664685E-2
554 611 -8.538064846164175
555 467 -1.5801077716326883
555 537 4.367318131064472
555 540 -1.2993295108179877E1
555 550 -4.803995772087635
555 554 1.075041185922781E1
555 555 1.3131969551599053E2
555 582 3.063898352141564
555 611 6.0010384310565215
555 613 1.6842369883844484
556 556 1.0785389993236153E2
556 559 -1.3578253693528692
556 573 -7.198263137951899
556 576 -2.685167420286083E-2
556 605 -2.7906817364239256E1
556 626 7.184550923946422E-1
556 629 -3.2788987498524
557 501 -1.3578253693528692
557 557 1.0785389993236153E2
557 574 -7.198263137951899
557 577 -2.685167420286083E-2
557 606 -2.7906817364239256E1
557 627 7.184550923946422E-1
557 630 -3.2788987498524
558 502 -1.3578253693528692
558 558 1.0785389993236153E2
558 575 -7.198263137951899
558 578 -2.685167420286083E-2
558 607 -2.7906817364239256E1
558 628 7.184550923946422E-1
558 631 -3.2788987498524
559 480 -7.3486211207443315
559 488 8.898838934411591
559 505 2.8752654884830493
559 511 -4.106418823405931
559 556 -1.357825369353172
559 559 3.9608737667670155E1
559 576 1.2274131420936044E1
559 605 1.4319713695927359
560 9 1.5491716224285964E1
560 20 -6.2467362127048865E1
560 301 -7.06341357437688
560 328 -1.537774789336204E1
560 560 1.1627934774573643E2
560 563 2.669296850085767E1
560 571 -3.1811611106967645
560 580 -1.3383220437380073E1
560 584 -1.8467709104250723E1
561 21 -6.2467362127048865E1
561 281 1.5491716224285964E1
561 299 -1.3383220437380073E1
561 302 -7.06341357437688
561 561 1.1627934774573643E2
561 564 2.669296850085767E1
561 572 -3.1811611106967645
561 579 -1.537774789336204E1
561 585 -1.8467709104250723E1
562 10 2.6692968500857376E1
562 327 -8.775629539842777E1
562 329 -3.492097081973182E1
562 339 -3.6406752490893496E1
562 548 8.282688223002042E1
562 562 6.155005744590567E2
562 565 -1.690405546084904E1
562 570 -6.314729162156606
562 573 -7.32802516210947E1
562 581 7.534798721553145E1
562 583 -6.531994231016327E1
563 328 -8.775629539842777E1
563 330 -3.492097081973182E1
563 340 -3.6406752490893496E1
563 547 7.534798721553145E1
563 549 8.282688223002042E1
563 560 2.6692968500857376E1
563 563 6.155005744590567E2
563 566 -1.690405546084904E1
563 571 -6.314729162156606
563 574 -7.32802516210947E1
563 584 -6.531994231016327E1
564 331 -3.492097081973182E1
564 341 -3.6406752490893496E1
564 550 8.282688223002042E1
564 561 2.6692968500857376E1
564 564 6.155005744590567E2
564 567 -1.690405546084904E1
564 572 -6.314729162156606
564 575 -7.32802516210947E1
564 579 -8.775629539842777E1
564 582 7.534798721553145E1
564 585 -6.531994231016327E1
565 329 -3.364255372342052E1
565 480 1.4697869419807457E1
565 544 -7.540567206356233
565 548 2.2951646850443336E1
565 562 -1.690405546084875E1
565 565 1.67280503400795E2
565 573 -1.4251179296093024E1
565 576 -1.7376722264294173E1
565 581 -2.3368905127502487E1
566 330 -3.364255372342052E1
566 503 1.4697869419807457E1
566 545 -7.540567206356233
566 547 -2.3368905127502487E1
566 549 2.2951646850443336E1
566 563 -1.690405546084875E1
566 566 1.67280503400795E2
566 574 -1.4251179296093024E1
566 577 -1.7376722264294173E1
567 331 -3.364255372342052E1
567 504 1.4697869419807457E1
567 546 -7.540567206356233
567 550 2.2951646850443336E1
567 564 -1.690405546084875E1
567 567 1.67280503400795E2
567 575 -1.4251179296093024E1
567 578 -1.7376722264294173E1
567 582 -2.3368905127502487E1
568 31 6.637222085678346
568 42 -2.120368828501128
568 552 -4.198629598108502
568 568 1.3016346045514325E2
568 583 -1.7959418906012274E1
568 609 -1.28194209308229E1
568 635 -1.7866513022994294E1
568 639 2.0867694878954076E1
568 722 2.250113597832101
568 738 -1.7042989449324345E1
569 11 -2.120368828501128
569 280 6.637222085678346
569 554 -4.198629598108502
569 569 1.3016346045514325E2
569 585 -1.7959418906012274E1
569 611 -1.28194209308229E1
569 641 2.0867694878954076E1
569 724 2.250113597832101
569 740 -1.7042989449324345E1
569 764 -1.7866513022994294E1
570 10 -3.1811611106978623
570 19 1.195251086442735E1
570 562 -6.314729162157359
570 570 2.1450743921304863E2
570 573 -9.164946884458798
570 583 -1.8014396925655458E1
570 636 -2.337690830897807E1
570 639 6.548046231771059E1
570 731 -1.161291736782601E1
570 738 -4.680655268966004E1
571 20 1.195251086442735E1
571 560 -3.1811611106978623
571 563 -6.314729162157359
571 571 2.1450743921304863E2
571 574 -9.164946884458798
571 584 -1.8014396925655458E1
571 637 -2.337690830897807E1
571 640 6.548046231771059E1
571 732 -1.161291736782601E1
571 739 -4.680655268966004E1
572 21 1.195251086442735E1
572 561 -3.1811611106978623
572 564 -6.314729162157359
572 572 2.1450743921304863E2
572 575 -9.164946884458798
572 585 -1.8014396925655458E1
572 638 -2.337690830897807E1
572 641 6.548046231771059E1
572 733 -1.161291736782601E1
572 740 -4.680655268966004E1
573 556 -7.198263137951593
573 562 -7.32802516210959E1
573 565 -1.4251179296093401E1
573 570 -9.164946884459601
573 573 5.419396412696669E2
573 576 -5.4966930905374
573 581 -1.66573083030849E1
573 583 1.823446092924903E1
573 602 6.482361823652481E1
573 605 -6.512946476294829
573 626 1.3298221133448212E1
573 629 -2.3026427257070708E1
573 636 -1.811314027089076E1
573 639 -8.151238402640477E1
574 547 -1.66573083030849E1
574 557 -7.198263137951593
574 563 -7.32802516210959E1
574 566 -1.4251179296093401E1
574 571 -9.164946884459601
574 574 5.419396412696669E2
574 577 -5.4966930905374
574 584 1.823446092924903E1
574 603 6.482361823652481E1
574 606 -6.512946476294829
574 627 1.3298221133448212E1
574 630 -2.3026427257070708E1
574 637 -1.811314027089076E1
574 640 -8.151238402640477E1
575 558 -7.198263137951593
575 564 -7.32802516210959E1
575 567 -1.4251179296093401E1
575 572 -9.164946884459601
575 575 5.419396412696669E2
575 578 -5.4966930905374
575 582 -1.66573083030849E1
575 585 1.823446092924903E1
575 604 6.482361823652481E1
575 607 -6.512946476294829
575 628 1.3298221133448212E1
575 631 -2.3026427257070708E1
575 638 -1.811314027089076E1
575 641 -8.151238402640477E1
576 480 -1.9487864091011627E1
576 505 4.169512277295087E1
576 556 -2.6851674202889253E-2
576 559 1.227413142093613E1
576 565 -1.7376722264296106E1
576 573 -5.4966930905384075
576 576 1.8111871526610216E2
576 581 5.4385552730772275
576 605 -2.330857524389276E1
577 501 1.227413142093613E1
577 503 -1.9487864091011627E1
577 506 4.169512277295087E1
577 547 5.4385552730772275
577 557 -2.6851674202889253E-2
577 566 -1.7376722264296106E1
577 574 -5.4966930905384075
577 577 1.8111871526610216E2
577 606 -2.330857524389276E1
578 502 1.227413142093613E1
578 504 -1.9487864091011627E1
578 507 4.169512277295087E1
578 558 -2.6851674202889253E-2
578 567 -1.7376722264296106E1
578 575 -5.4966930905384075
578 578 1.8111871526610216E2
578 582 5.4385552730772275
578 607 -2.330857524389276E1
579 299 1.0721354807891194E1
579 302 -1.1369064777004748E2
579 305 4.934418648356332E1
579 331 7.465539860671928
579 334 -3.592187349024208E1
579 337 -2.5716064753730773E1
579 341 -1.050374643937327E2
579 561 -1.5377747893362104E1
579 564 -8.775629539843094E1
579 579 2.375398617947545E2
579 585 5.189479767255785
580 9 -9.938813925557202
580 301 -1.1070763322705243E1
580 304 2.7999592905022563E1
580 328 1.0721354807889218E1
580 336 -2.5206649832303363E1
580 365 2.4102213285308956E1
580 370 -1.916820464355226E1
580 560 -1.3383220437380144E1
580 580 1.6441031059943217E2
581 465 1.806283282853449E1
581 471 -1.072307058198299E1
581 474 4.2894685763151145E1
581 480 1.3434926742070632E1
581 491 -3.074887786832518E1
581 494 -3.821010728001592E1
581 499 1.4685086274052715E1
581 505 2.1308241701445866E1
581 519 3.063898352140825
581 527 1.5372623074975486E1
581 538 2.474082227702177E1
581 544 7.451054740831587
581 548 -3.623979978383977E1
581 552 4.540556742863459E1
581 562 7.534798721552947E1
581 565 -2.3368905127500508E1
581 573 -1.6657308303084545E1
581 576 5.438555273077732
581 581 3.316254658040802E2
581 583 -3.939275542638572E1
581 590 1.9604059443323795E1
581 595 9.83473880178223
581 602 -3.827221018305355E1
581 605 1.5990465834295229
581 609 -1.6333719580906436E1
581 612 -1.75148613405754E1
581 639 5.794821387564956E-1
582 467 1.806283282853449E1
582 473 -1.072307058198299E1
582 476 4.2894685763151145E1
582 493 -3.074887786832518E1
582 495 -3.821010728001592E1
582 496 1.5372623074975486E1
582 500 1.4685086274052715E1
582 504 1.3434926742070632E1
582 507 2.1308241701445866E1
582 540 2.474082227702177E1
582 546 7.451054740831587
582 550 -3.623979978383977E1
582 554 4.540556742863459E1
582 555 3.063898352140825
582 564 7.534798721552947E1
582 567 -2.3368905127500508E1
582 575 -1.6657308303084545E1
582 578 5.438555273077732
582 582 3.316254658040802E2
582 585 -3.939275542638572E1
582 592 1.9604059443323795E1
582 597 9.83473880178223
582 604 -3.827221018305355E1
582 607 1.5990465834295229
582 611 -1.6333719580906436E1
582 613 -1.75148613405754E1
582 641 5.794821387564956E-1
583 10 -1.8467709104250403E1
583 19 6.026225582604552E1
583 22 1.8435242748942862E1
583 31 -1.737062628014843E1
583 42 -1.9571297405448377E1
583 285 -3.4947182888454066E1
583 300 -9.189241073243414E1
583 327 5.189479767255429
583 339 -1.1883429852481854E1
583 548 4.149627721679147E1
583 552 7.993055415721528E-2
583 562 -6.531994231016374E1
583 568 -1.7959418906012417E1
583 570 -1.801439692565548E1
583 573 1.8234460929249753E1
583 581 -3.939275542638682E1
583 583 5.476939129021537E2
583 609 9.865991227146687E-1
583 639 -4.172473976615517E1
583 738 -1.1650877618178736E1
584 20 6.026225582604552E1
584 43 -1.9571297405448377E1
584 48 1.8435242748942862E1
584 286 -3.4947182888454066E1
584 301 -9.189241073243414E1
584 328 5.189479767255429
584 340 -1.1883429852481854E1
584 547 -3.939275542638682E1
584 549 4.149627721679147E1
584 551 -1.737062628014843E1
584 553 7.993055415721528E-2
584 560 -1.8467709104250403E1
584 563 -6.531994231016374E1
584 571 -1.801439692565548E1
584 574 1.8234460929249753E1
584 584 5.476939129021537E2
584 608 -1.7959418906012417E1
584 610 9.865991227146687E-1
584 640 -4.172473976615517E1
584 739 -1.1650877618178736E1
585 11 -1.9571297405448377E1
585 21 6.026225582604552E1
585 23 1.8435242748942862E1
585 280 -1.737062628014843E1
585 287 -3.4947182888454066E1
585 302 -9.189241073243414E1
585 341 -1.1883429852481854E1
585 550 4.149627721679147E1
585 554 7.993055415721528E-2
585 561 -1.8467709104250403E1
585 564 -6.531994231016374E1
585 569 -1.7959418906012417E1
585 572 -1.801439692565548E1
585 575 1.8234460929249753E1
585 579 5.189479767255429
585 582 -3.939275542638682E1
585 585 5.476939129021537E2
585 611 9.865991227146687E-1
585 641 -4.172473976615517E1
585 740 -1.1650877618178736E1
586 468 1.5630167040921776
586 586 2.9998524848058196E1
586 589 3.7606186038173917
586 593 -3.7473066257617234
586 595 -1.7258669187150844E1
586 609 -4.841238200589615
586 612 1.009366263626373E1
587 469 1.5630167040921776
587 481 1.009366263626373E1
587 587 2.9998524848058196E1
587 594 -3.7473066257617234
587 596 -1.7258669187150844E1
587 610 -4.841238200589615
587 614 3.7606186038173917
588 470 1.5630167040921776
588 588 2.9998524848058196E1
588 597 -1.7258669187150844E1
588 611 -4.841238200589615
588 613 1.009366263626373E1
588 615 3.7606186038173917
588 621 -3.7473066257617234
589 586 3.760618603817676
589 589 5.071971385420582E1
589 593 -7.741117251604635
589 609 5.054221444521849
589 619 -1.7777795638822226E1
589 635 7.636480921236284
589 741 5.930091533916425
590 471 3.0998402785416395E1
590 581 1.9604059443325642E1
590 590 4.9284752126015036E2
590 593 -8.377937033948157E1
590 595 -9.068146907871356E1
590 602 -1.913414808076382E2
590 609 -7.418701742382841E1
590 616 1.2047770637598886E1
590 639 7.074557322011859E1
590 658 -3.7405608449027876
590 692 -1.2608866314801705
591 472 3.0998402785416395E1
591 547 1.9604059443325642E1
591 591 4.9284752126015036E2
591 594 -8.377937033948157E1
591 596 -9.068146907871356E1
591 599 -1.2608866314801705
591 603 -1.913414808076382E2
591 610 -7.418701742382841E1
591 617 1.2047770637598886E1
591 640 7.074557322011859E1
591 659 -3.7405608449027876
592 473 3.0998402785416395E1
592 582 1.9604059443325642E1
592 592 4.9284752126015036E2
592 597 -9.068146907871356E1
592 598 -3.7405608449027876
592 604 -1.913414808076382E2
592 611 -7.418701742382841E1
592 618 1.2047770637598886E1
592 621 -8.377937033948157E1
592 641 7.074557322011859E1
592 693 -1.2608866314801705
593 586 -3.747306625761695
593 589 -7.741117251603612
593 590 -8.377937033948218E1
593 593 1.3354571812529076E2
593 595 8.141844190058919
593 609 5.903936195092195
593 616 -4.5907978262982226E1
593 619 2.2026578865919646
593 635 2.5766510715270776E1
593 639 -1.9466095935316176E1
594 587 -3.747306625761695
594 591 -8.377937033948218E1
594 594 1.3354571812529076E2
594 596 8.141844190058919
594 610 5.903936195092195
594 614 -7.741117251603612
594 617 -4.5907978262982226E1
594 640 -1.9466095935316176E1
594 753 2.2026578865919646
594 763 2.5766510715270776E1
595 468 -5.343572789995861E-1
595 471 -3.492004770179915E1
595 474 -6.075964596594712
595 581 9.834738801781974
595 586 -1.7258669187150048E1
595 590 -9.068146907871527E1
595 593 8.141844190059984
595 595 1.8134577618312562E2
595 609 7.502878961568005E-1
595 612 -1.8242103505380456E1
596 469 -5.343572789995861E-1
596 472 -3.492004770179915E1
596 475 -6.075964596594712
596 481 -1.8242103505380456E1
596 547 9.834738801781974
596 587 -1.7258669187150048E1
596 591 -9.068146907871527E1
596 594 8.141844190059984
596 596 1.8134577618312562E2
596 610 7.502878961568005E-1
597 470 -5.343572789995861E-1
597 473 -3.492004770179915E1
597 476 -6.075964596594712
597 582 9.834738801781974
597 588 -1.7258669187150048E1
597 592 -9.068146907871527E1
597 597 1.8134577618312562E2
597 611 7.502878961568005E-1
597 613 -1.8242103505380456E1
597 621 8.141844190059984
598 473 -8.400483630914096
598 493 -1.3425736981981453E1
598 592 -3.7405608449032983
598 598 8.272251234753566E1
598 604 -1.3127420266394552E1
598 653 1.272022659568404E1
598 657 3.9071079960751653
598 680 2.8890809988836565
598 683 1.8566704356759942
598 685 1.128583955907986E1
598 693 -1.375342938083116
598 712 -3.452017875756732E1
599 591 -1.2608866314800915
599 599 8.214352389119449E1
599 600 -1.157711627467177E1
599 601 1.4348782988979238E1
599 603 -1.2556048210304716E1
599 617 -4.606613419155699
599 623 3.89650381159959
599 654 2.9523751973041996
599 659 -1.3753429380832765
599 671 3.84123722044092
599 687 3.5781276095027073
599 708 1.29396739381054E-1
599 714 -4.594410580121881E1
600 599 -1.1577116274671932E1
600 600 9.03925734113453E1
600 601 -5.161129695910711E1
600 617 5.93909818347197
600 623 -6.817108235492805
600 687 -7.841346340413367E-1
600 690 9.454418047713261
600 705 -6.244965117930541
600 714 1.2269397533195653E1
600 746 -1.1613755658885704E1
600 757 2.1605666302255965E1
600 776 -1.1471185815710003E1
600 787 8.533983198108743
601 599 1.4348782988979162E1
601 600 -5.1611296959111E1
601 601 7.378744675775397E1
601 623 -3.152120315205599
601 701 1.4464908361549952E1
601 705 -1.844915258909203E1
601 714 -1.6491073698110654E1
601 757 -5.15551521505577
601 776 8.999945271279586E-2
601 780 1.6462988115018504
601 787 -6.340788225456347
602 471 7.163623496996683E-1
602 491 1.4618875015766585E1
602 573 6.482361823652506E1
602 581 -3.8272210183053275E1
602 590 -1.9134148080763816E2
602 602 5.675983174075811E2
602 605 -8.716001966557147E1
602 616 2.1987244458991658E1
602 622 6.24089190545271
602 629 -7.92657185743518E1
602 639 -8.466764141848271
602 658 -1.3127420266394779E1
602 692 -1.2556048210304674E1
602 711 7.628537433236673
602 713 1.2281311782473704E1
603 472 7.163623496996683E-1
603 492 1.4618875015766585E1
603 547 -3.8272210183053275E1
603 574 6.482361823652506E1
603 591 -1.9134148080763816E2
603 599 -1.2556048210304674E1
603 603 5.675983174075811E2
603 606 -8.716001966557147E1
603 617 2.1987244458991658E1
603 623 6.24089190545271
603 630 -7.92657185743518E1
603 640 -8.466764141848271
603 659 -1.3127420266394779E1
603 671 7.628537433236673
603 714 1.2281311782473704E1
604 473 7.163623496996683E-1
604 493 1.4618875015766585E1
604 575 6.482361823652506E1
604 582 -3.8272210183053275E1
604 592 -1.9134148080763816E2
604 598 -1.3127420266394779E1
604 604 5.675983174075811E2
604 607 -8.716001966557147E1
604 618 2.1987244458991658E1
604 624 6.24089190545271
604 631 -7.92657185743518E1
604 641 -8.466764141848271
604 693 -1.2556048210304674E1
604 712 7.628537433236673
604 715 1.2281311782473704E1
605 491 8.316236071992037
605 505 -1.697441653940047E1
605 556 -2.7906817364238773E1
605 559 1.431971369592075
605 573 -6.512946476295383
605 576 -2.33085752438923E1
605 581 1.599046583430276
605 602 -8.716001966557427E1
605 605 1.0287091407736916E2
605 629 2.6438064475312464
606 492 8.316236071992037
606 501 1.431971369592075
606 506 -1.697441653940047E1
606 547 1.599046583430276
606 557 -2.7906817364238773E1
606 574 -6.512946476295383
606 577 -2.33085752438923E1
606 603 -8.716001966557427E1
606 606 1.0287091407736916E2
606 630 2.6438064475312464
607 493 8.316236071992037
607 502 1.431971369592075
607 507 -1.697441653940047E1
607 558 -2.7906817364238773E1
607 575 -6.512946476295383
607 578 -2.33085752438923E1
607 582 1.599046583430276
607 604 -8.716001966557427E1
607 607 1.0287091407736916E2
607 631 2.6438064475312464
608 43 -2.120368828501128
608 551 6.637222085678346
608 553 -4.198629598108502
608 584 -1.7959418906012274E1
608 608 1.3016346045514325E2
608 610 -1.28194209308229E1
608 640 2.0867694878954076E1
608 723 2.250113597832101
608 739 -1.7042989449324345E1
608 763 -1.7866513022994294E1
609 519 6.0010384310560525
609 552 -8.538064846164062
609 568 -1.2819420930824123E1
609 581 -1.633371958090658E1
609 583 9.865991227165622E-1
609 586 -4.841238200588819
609 589 5.054221444522477
609 590 -7.418701742382946E1
609 593 5.903936195093332
609 595 7.502878961563457E-1
609 609 1.3436742694462987E2
609 612 -4.147196543424126
609 635 2.7312189967802425
609 639 -3.673247079418192E1
610 481 -4.147196543424126
610 520 6.0010384310560525
610 547 -1.633371958090658E1
610 553 -8.538064846164062
610 584 9.865991227165622E-1
610 587 -4.841238200588819
610 591 -7.418701742382946E1
610 594 5.903936195093332
610 596 7.502878961563457E-1
610 608 -1.2819420930824123E1
610 610 1.3436742694462987E2
610 614 5.054221444522477
610 640 -3.673247079418192E1
610 763 2.7312189967802425
611 554 -8.538064846164062
611 555 6.0010384310560525
611 569 -1.2819420930824123E1
611 582 -1.633371958090658E1
611 585 9.865991227165622E-1
611 588 -4.841238200588819
611 592 -7.418701742382946E1
611 597 7.502878961563457E-1
611 611 1.3436742694462987E2
611 613 -4.147196543424126
611 615 5.054221444522477
611 621 5.903936195093332
611 641 -3.673247079418192E1
611 764 2.7312189967802425
612 465 -2.9805388345194173
612 468 -8.243036225718186E-1
612 474 5.491046865543675
612 519 1.684236988384562
612 581 -1.7514861340575855E1
612 586 1.0093662636263275E1
612 595 -1.824210350538007E1
612 609 -4.147196543423586
612 612 5.362869157460104E1
613 467 -2.9805388345194173
613 470 -8.243036225718186E-1
613 476 5.491046865543675
613 555 1.684236988384562
613 582 -1.7514861340575855E1
613 588 1.0093662636263275E1
613 597 -1.824210350538007E1
613 611 -4.147196543423586
613 613 5.362869157460104E1
614 587 3.760618603817676
614 594 -7.741117251604635
614 610 5.054221444521849
614 614 5.071971385420582E1
614 742 5.930091533916425
614 753 -1.7777795638822226E1
614 763 7.636480921236284
615 588 3.760618603817676
615 611 5.054221444521849
615 615 5.071971385420582E1
615 620 -1.7777795638822226E1
615 621 -7.741117251604635
615 743 5.930091533916425
615 764 7.636480921236284
616 590 1.2047770637598745E1
616 593 -4.590797826298041E1
616 602 2.198724445899175E1
616 616 1.7460317614032874E2
616 619 -4.021782801008956E1
616 622 -7.640078936705382E1
616 635 6.923085226305697
616 639 -5.4759581641247195
616 692 -4.606613419156154
616 694 5.9390981834712875
616 745 1.788579220172926E1
617 591 1.2047770637598745E1
617 594 -4.590797826298041E1
617 599 -4.606613419156154
617 600 5.9390981834712875
617 603 2.198724445899175E1
617 617 1.7460317614032874E2
617 623 -7.640078936705382E1
617 640 -5.4759581641247195
617 746 1.788579220172926E1
617 753 -4.021782801008956E1
617 763 6.923085226305697
618 592 1.2047770637598745E1
618 604 2.198724445899175E1
618 618 1.7460317614032874E2
618 620 -4.021782801008956E1
618 621 -4.590797826298041E1
618 624 -7.640078936705382E1
618 641 -5.4759581641247195
618 693 -4.606613419156154
618 695 5.9390981834712875
618 764 6.923085226305697
618 770 1.788579220172926E1
619 589 -1.777779563882177E1
619 593 2.202657886591055
619 616 -4.0217828010090216E1
619 619 1.5556834782824131E2
619 635 -4.662712626127944E1
619 639 2.1082390560027537E1
619 741 -1.110833001260545E1
619 745 -1.5333892202255555E1
619 750 3.6169843788588025
620 615 -1.777779563882177E1
620 618 -4.0217828010090216E1
620 620 1.5556834782824131E2
620 621 2.202657886591055
620 641 2.1082390560027537E1
620 743 -1.110833001260545E1
620 752 3.6169843788588025
620 764 -4.662712626127944E1
620 770 -1.5333892202255555E1
621 588 -3.747306625761695
621 592 -8.377937033948218E1
621 597 8.141844190058919
621 611 5.903936195092195
621 615 -7.741117251603612
621 618 -4.5907978262982226E1
621 620 2.2026578865919646
621 621 1.3354571812529076E2
621 641 -1.9466095935316176E1
621 764 2.5766510715270776E1
622 602 6.240891905452596
622 616 -7.640078936705368E1
622 622 2.4430052110151706E2
622 629 2.936385400781276E-1
622 632 -7.679702434705322E1
622 636 4.7245309237710465E1
622 639 -2.928659184200309E1
622 692 3.896503811599135
622 694 -6.817108235492578
622 713 1.1321307000095118
622 716 -3.1521203152056128
622 745 9.90990200670543
622 756 1.0319976667677496E1
623 599 3.896503811599135
623 600 -6.817108235492578
623 601 -3.1521203152056128
623 603 6.240891905452596
623 617 -7.640078936705368E1
623 623 2.4430052110151706E2
623 630 2.936385400781276E-1
623 633 -7.679702434705322E1
623 637 4.7245309237710465E1
623 640 -2.928659184200309E1
623 714 1.1321307000095118
623 746 9.90990200670543
623 757 1.0319976667677496E1
624 604 6.240891905452596
624 618 -7.640078936705368E1
624 624 2.4430052110151706E2
624 631 2.936385400781276E-1
624 634 -7.679702434705322E1
624 638 4.7245309237710465E1
624 641 -2.928659184200309E1
624 693 3.896503811599135
624 695 -6.817108235492578
624 715 1.1321307000095118
624 717 -3.1521203152056128
624 770 9.90990200670543
624 792 1.0319976667677496E1
625 625 2.2663662800990117E1
625 627 7.51025527164832E-1
625 633 -6.657524739909424E-1
625 637 5.234257663714964E-1
625 729 -5.100176200699337
625 760 -2.2680781815416793E1
625 845 2.1625003067769395
626 556 7.184550923948732E-1
626 573 1.3298221133448235E1
626 626 7.301584820367702E1
626 629 -3.951727969122456
626 632 -8.941631065790167
626 636 7.343381199210967
626 758 7.510255271648577E-1
627 557 7.184550923948732E-1
627 574 1.3298221133448235E1
627 625 7.510255271648577E-1
627 627 7.301584820367702E1
627 630 -3.951727969122456
627 633 -8.941631065790167
627 637 7.343381199210967
628 558 7.184550923948732E-1
628 575 1.3298221133448235E1
628 628 7.301584820367702E1
628 631 -3.951727969122456
628 634 -8.941631065790167
628 638 7.343381199210967
628 719 7.510255271648577E-1
629 556 -3.2788987498525066
629 573 -2.302642725707298E1
629 602 -7.92657185743524E1
629 605 2.6438064475320138
629 622 2.936385400777297E-1
629 626 -3.951727969122218
629 629 2.760606106019291E2
629 632 -4.8027048510895884
629 636 4.013169543636464E1
629 639 -2.053995402077203E1
630 557 -3.2788987498525066
630 574 -2.302642725707298E1
630 603 -7.92657185743524E1
630 606 2.6438064475320138
630 623 2.936385400777297E-1
630 627 -3.951727969122218
630 630 2.760606106019291E2
630 633 -4.8027048510895884
630 637 4.013169543636464E1
630 640 -2.053995402077203E1
631 558 -3.2788987498525066
631 575 -2.302642725707298E1
631 604 -7.92657185743524E1
631 607 2.6438064475320138
631 624 2.936385400777297E-1
631 628 -3.951727969122218
631 631 2.760606106019291E2
631 634 -4.8027048510895884
631 638 4.013169543636464E1
631 641 -2.053995402077203E1
632 622 -7.679702434705294E1
632 626 -8.941631065790407
632 629 -4.8027048510893895
632 632 1.2614086066890118E2
632 636 -4.09636112422606E1
632 639 2.9633649450063043E1
632 756 -3.2216503162893765E1
632 758 -6.657524739906013E-1
632 759 9.904005638010807E-1
633 623 -7.679702434705294E1
633 625 -6.657524739906013E-1
633 627 -8.941631065790407
633 630 -4.8027048510893895
633 633 1.2614086066890118E2
633 637 -4.09636112422606E1
633 640 2.9633649450063043E1
633 757 -3.2216503162893765E1
633 760 9.904005638010807E-1
634 624 -7.679702434705294E1
634 628 -8.941631065790407
634 631 -4.8027048510893895
634 634 1.2614086066890118E2
634 638 -4.09636112422606E1
634 641 2.9633649450063043E1
634 719 -6.657524739906013E-1
634 720 9.904005638010807E-1
634 792 -3.2216503162893765E1
635 568 -1.786651302299516E1
635 589 7.636480921236171
635 593 2.5766510715270527E1
635 609 2.7312189967817773
635 616 6.923085226306716
635 619 -4.662712626128051E1
635 635 2.5253264047693514E2
635 639 -6.1473819724586285
635 722 -2.4144782045930953
635 738 1.902417386569421E1
635 741 -4.111565038265155
635 745 -3.724584931128942E1
635 750 2.1285147459413565E1
635 761 -1.2356603663379559E1
636 570 -2.3376908308977363E1
636 573 -1.8113140270891037E1
636 622 4.724530923770945E1
636 626 7.343381199211876
636 629 4.013169543636474E1
636 632 -4.0963611242263354E1
636 636 1.763511467282212E2
636 639 -5.871541871704209E1
636 731 3.1535585399903225
636 738 2.4685678797421293E1
636 756 -5.901869229511526
636 758 5.234257663724569E-1
636 759 8.089795406337199E-1
636 766 -3.7858769972882826E1
637 571 -2.3376908308977363E1
637 574 -1.8113140270891037E1
637 623 4.724530923770945E1
637 625 5.234257663724569E-1
637 627 7.343381199211876
637 630 4.013169543636474E1
637 633 -4.0963611242263354E1
637 637 1.763511467282212E2
637 640 -5.871541871704209E1
637 729 -3.7858769972882826E1
637 732 3.1535585399903225
637 739 2.4685678797421293E1
637 757 -5.901869229511526
637 760 8.089795406337199E-1
638 572 -2.3376908308977363E1
638 575 -1.8113140270891037E1
638 624 4.724530923770945E1
638 628 7.343381199211876
638 631 4.013169543636474E1
638 634 -4.0963611242263354E1
638 638 1.763511467282212E2
638 641 -5.871541871704209E1
638 719 5.234257663724569E-1
638 720 8.089795406337199E-1
638 730 -3.7858769972882826E1
638 733 3.1535585399903225
638 740 2.4685678797421293E1
638 792 -5.901869229511526
639 568 2.0867694878953337E1
639 570 6.548046231771164E1
639 573 -8.151238402640573E1
639 581 5.794821387581244E-1
639 583 -4.172473976615099E1
639 590 7.074557322011783E1
639 593 -1.946609593531518E1
639 602 -8.466764141846962
639 609 -3.6732470794180955E1
639 616 -5.475958164125544
639 619 2.1082390560029175E1
639 622 -2.9286591842004E1
639 629 -2.053995402077271E1
639 632 2.9633649450063047E1
639 635 -6.147381972459083
639 636 -5.871541871704286E1
639 639 3.48475420700844E2
639 738 -6.676048249405076E1
639 745 1.4793458094150552E1
639 756 -6.391743490977861E1
640 547 5.794821387581244E-1
640 571 6.548046231771164E1
640 574 -8.151238402640573E1
640 584 -4.172473976615099E1
640 591 7.074557322011783E1
640 594 -1.946609593531518E1
640 603 -8.466764141846962
640 608 2.0867694878953337E1
640 610 -3.6732470794180955E1
640 617 -5.475958164125544
640 623 -2.9286591842004E1
640 630 -2.053995402077271E1
640 633 2.9633649450063047E1
640 637 -5.871541871704286E1
640 640 3.48475420700844E2
640 739 -6.676048249405076E1
640 746 1.4793458094150552E1
640 753 2.1082390560029175E1
640 757 -6.391743490977861E1
640 763 -6.147381972459083
641 569 2.0867694878953337E1
641 572 6.548046231771164E1
641 575 -8.151238402640573E1
641 582 5.794821387581244E-1
641 585 -4.172473976615099E1
641 592 7.074557322011783E1
641 604 -8.466764141846962
641 611 -3.6732470794180955E1
641 618 -5.475958164125544
641 620 2.1082390560029175E1
641 621 -1.946609593531518E1
641 624 -2.9286591842004E1
641 631 -2.053995402077271E1
641 634 2.9633649450063047E1
641 638 -5.871541871704286E1
641 641 3.48475420700844E2
641 740 -6.676048249405076E1
641 764 -6.147381972459083
641 770 1.4793458094150552E1
641 792 -6.391743490977861E1
642 642 3.0407952429353912E1
642 645 -4.1342117085277806E1
642 648 1.8208584349461792
642 651 1.811933935592915
642 665 -1.8220305341206755
642 668 6.84477546923674
642 675 -4.518055428764286
642 678 -7.883147312868356
643 643 3.0407952429353912E1
643 646 -4.1342117085277806E1
643 649 1.8208584349461792
643 652 1.811933935592915
643 666 -1.8220305341206755
643 669 6.84477546923674
643 676 -4.518055428764286
643 679 -7.883147312868356
644 644 3.0407952429353912E1
644 647 -4.1342117085277806E1
644 650 1.8208584349461792
644 653 1.811933935592915
644 667 -1.8220305341206755
644 670 6.84477546923674
644 677 -4.518055428764286
644 680 -7.883147312868356
645 642 -4.134211708527735E1
645 645 7.228651489037384E1
645 660 2.4675641739482277
645 665 -5.792410711579219E-1
645 668 -1.4693363566518286E1
645 672 -5.705729166561311
645 675 8.196151241635192E-1
645 678 1.728785605487854E1
646 643 -4.134211708527735E1
646 646 7.228651489037384E1
646 661 2.4675641739482277
646 666 -5.792410711579219E-1
646 669 -1.4693363566518286E1
646 673 -5.705729166561311
646 676 8.196151241635192E-1
646 679 1.728785605487854E1
647 644 -4.134211708527735E1
647 647 7.228651489037384E1
647 662 2.4675641739482277
647 667 -5.792410711579219E-1
647 670 -1.4693363566518286E1
647 674 -5.705729166561311
647 677 8.196151241635192E-1
647 680 1.728785605487854E1
648 458 7.111093749976405
648 642 1.8208584349462382
648 648 2.4821433300333638E1
648 655 -2.8535289950487464
648 675 -2.5081942821507596E1
648 678 5.66814400785129
649 459 7.111093749976405
649 643 1.8208584349462382
649 649 2.4821433300333638E1
649 656 -2.8535289950487464
649 676 -2.5081942821507596E1
649 679 5.66814400785129
650 460 7.111093749976405
650 644 1.8208584349462382
650 650 2.4821433300333638E1
650 657 -2.8535289950487464
650 677 -2.5081942821507596E1
650 680 5.66814400785129
651 642 1.811933935593391
651 651 5.141568750987005E1
651 658 1.272022659568438E1
651 665 -4.9457240229166715
651 668 -3.523597164383105
651 678 -9.544887027873934
651 684 3.2395034621009273
651 710 -2.2296037343484727
651 711 -9.33235734536277
652 643 1.811933935593391
652 652 5.141568750987005E1
652 654 3.2395034621009273
652 659 1.272022659568438E1
652 663 -2.2296037343484727
652 666 -4.9457240229166715
652 669 -3.523597164383105
652 671 -9.33235734536277
652 679 -9.544887027873934
653 598 1.272022659568438E1
653 644 1.811933935593391
653 653 5.141568750987005E1
653 664 -2.2296037343484727
653 667 -4.9457240229166715
653 670 -3.523597164383105
653 680 -9.544887027873934
653 685 3.2395034621009273
653 712 -9.33235734536277
654 599 2.9523751973041428
654 652 3.239503462101098
654 654 3.304211204637164E1
654 659 1.128583955908043E1
654 663 -4.893195039446809
654 671 -1.3701472170450891E1
654 687 8.020873667349207
654 708 -1.993534077233187E1
654 714 2.017498139853892
655 458 -3.3639515712991397
655 461 -2.424856915170026E-1
655 471 -3.779116557387738
655 491 -9.358073741299776
655 648 -2.853528995048737
655 655 3.058423528293965E1
655 658 3.907107996074881
655 675 9.100200655365285
655 678 4.546638295006019
655 681 -1.7393636509360803E1
656 459 -3.3639515712991397
656 462 -2.424856915170026E-1
656 472 -3.779116557387738
656 492 -9.358073741299776
656 649 -2.853528995048737
656 656 3.058423528293965E1
656 659 3.907107996074881
656 676 9.100200655365285
656 679 4.546638295006019
656 682 -1.7393636509360803E1
657 460 -3.3639515712991397
657 463 -2.424856915170026E-1
657 473 -3.779116557387738
657 493 -9.358073741299776
657 598 3.907107996074881
657 650 -2.853528995048737
657 657 3.058423528293965E1
657 677 9.100200655365285
657 680 4.546638295006019
657 683 -1.7393636509360803E1
658 471 -8.400483630914096
658 491 -1.3425736981981453E1
658 590 -3.7405608449032983
658 602 -1.3127420266394552E1
658 651 1.272022659568404E1
658 655 3.9071079960751653
658 658 8.272251234753566E1
658 678 2.8890809988836565
658 681 1.8566704356759942
658 684 1.128583955907986E1
658 692 -1.375342938083116
658 711 -3.452017875756732E1
659 472 -8.400483630914096
659 492 -1.3425736981981453E1
659 591 -3.7405608449032983
659 599 -1.375342938083116
659 603 -1.3127420266394552E1
659 652 1.272022659568404E1
659 654 1.128583955907986E1
659 656 3.9071079960751653
659 659 8.272251234753566E1
659 671 -3.452017875756732E1
659 679 2.8890809988836565
659 682 1.8566704356759942
660 645 2.467564173948263
660 660 5.5867776929217996E1
660 665 -1.6099635151024216E1
660 668 -2.850870269990793E1
660 697 4.743295978687755
660 710 -3.133755980708473E1
660 711 1.83886253722076E1
661 646 2.467564173948263
661 661 5.5867776929217996E1
661 663 -3.133755980708473E1
661 666 -1.6099635151024216E1
661 669 -2.850870269990793E1
661 671 1.83886253722076E1
661 698 4.743295978687755
662 647 2.467564173948263
662 662 5.5867776929217996E1
662 664 -3.133755980708473E1
662 667 -1.6099635151024216E1
662 670 -2.850870269990793E1
662 699 4.743295978687755
662 712 1.83886253722076E1
663 652 -2.229603734348629
663 654 -4.893195039446354
663 661 -3.133755980708466E1
663 663 5.5248345135164136E1
663 666 -1.9835911036796716E-2
663 669 2.2353735650459868E1
663 671 -1.178346308625894E1
663 698 -2.0433551555623183E1
663 708 7.070012221717086E-1
664 653 -2.229603734348629
664 662 -3.133755980708466E1
664 664 5.5248345135164136E1
664 667 -1.9835911036796716E-2
664 670 2.2353735650459868E1
664 685 -4.893195039446354
664 699 -2.0433551555623183E1
664 709 7.070012221717086E-1
664 712 -1.178346308625894E1
665 642 -1.8220305341208176
665 645 -5.792410711578668E-1
665 651 -4.94572402291643
665 660 -1.609963515102399E1
665 665 3.174028304737658E1
665 668 -1.29703512211221E1
665 710 -1.9835911036704346E-2
666 643 -1.8220305341208176
666 646 -5.792410711578668E-1
666 652 -4.94572402291643
666 661 -1.609963515102399E1
666 663 -1.9835911036704346E-2
666 666 3.174028304737658E1
666 669 -1.29703512211221E1
667 644 -1.8220305341208176
667 647 -5.792410711578668E-1
667 653 -4.94572402291643
667 662 -1.609963515102399E1
667 664 -1.9835911036704346E-2
667 667 3.174028304737658E1
667 670 -1.29703512211221E1
668 642 6.844775469236492
668 645 -1.4693363566518485E1
668 651 -3.5235971643829913
668 660 -2.850870269990736E1
668 665 -1.2970351221121716E1
668 668 6.611817159703808E1
668 672 -8.889798490517306E-1
668 675 9.738772562648222
668 678 -1.0096577207179976E1
668 681 -3.705632546328353
668 710 2.235373565045957E1
668 711 -1.825633825778739E1
669 643 6.844775469236492
669 646 -1.4693363566518485E1
669 652 -3.5235971643829913
669 661 -2.850870269990736E1
669 663 2.235373565045957E1
669 666 -1.2970351221121716E1
669 669 6.611817159703808E1
669 671 -1.825633825778739E1
669 673 -8.889798490517306E-1
669 676 9.738772562648222
669 679 -1.0096577207179976E1
669 682 -3.705632546328353
670 644 6.844775469236492
670 647 -1.4693363566518485E1
670 653 -3.5235971643829913
670 662 -2.850870269990736E1
670 664 2.235373565045957E1
670 667 -1.2970351221121716E1
670 670 6.611817159703808E1
670 674 -8.889798490517306E-1
670 677 9.738772562648222
670 680 -1.0096577207179976E1
670 683 -3.705632546328353
670 712 -1.825633825778739E1
671 492 1.3050461377500604E1
671 599 3.841237220440579
671 603 7.628537433236957
671 652 -9.33235734536161
671 654 -1.3701472170451403E1
671 659 -3.452017875756815E1
671 661 1.8388625372207656E1
671 663 -1.1783463086258841E1
671 669 -1.8256338257786794E1
671 671 8.37969256747891E1
671 679 4.226150329160532
671 682 -2.3158275049698105
671 698 -2.8702571947567776E1
671 708 2.47722151365585E1
671 714 -1.3636770568541102E1
672 461 2.5599702743070614
672 645 -5.705729166561322
672 668 -8.889798490517936E-1
672 672 2.86517108365571E1
672 675 -2.532467072508797E1
672 681 -9.893642373471336E-1
673 462 2.5599702743070614
673 646 -5.705729166561322
673 669 -8.889798490517936E-1
673 673 2.86517108365571E1
673 676 -2.532467072508797E1
673 682 -9.893642373471336E-1
674 463 2.5599702743070614
674 647 -5.705729166561322
674 670 -8.889798490517936E-1
674 674 2.86517108365571E1
674 677 -2.532467072508797E1
674 683 -9.893642373471336E-1
675 458 -1.67936999234307E1
675 461 2.2897528814719084
675 642 -4.518055428764494
675 645 8.19615124162894E-1
675 648 -2.5081942821507482E1
675 655 9.100200655365569
675 668 9.738772562648705
675 672 -2.532467072508794E1
675 675 9.196357753872606E1
675 678 -2.1461379256037837E1
675 681 -8.78465532939582
676 459 -1.67936999234307E1
676 462 2.2897528814719084
676 643 -4.518055428764494
676 646 8.19615124162894E-1
676 649 -2.5081942821507482E1
676 656 9.100200655365569
676 669 9.738772562648705
676 673 -2.532467072508794E1
676 676 9.196357753872606E1
676 679 -2.1461379256037837E1
676 682 -8.78465532939582
677 460 -1.67936999234307E1
677 463 2.2897528814719084
677 644 -4.518055428764494
677 647 8.19615124162894E-1
677 650 -2.5081942821507482E1
677 657 9.100200655365569
677 670 9.738772562648705
677 674 -2.532467072508794E1
677 677 9.196357753872606E1
677 680 -2.1461379256037837E1
677 683 -8.78465532939582
678 642 -7.883147312869037
678 645 1.7287856054879278E1
678 648 5.668144007851593
678 651 -9.544887027873166
678 655 4.546638295004541
678 658 2.889080998883543
678 668 -1.0096577207179884E1
678 675 -2.1461379256036974E1
678 678 5.148301219384797E1
678 681 -1.5269707699233265E1
678 711 4.2261503291608165
679 643 -7.883147312869037
679 646 1.7287856054879278E1
679 649 5.668144007851593
679 652 -9.544887027873166
679 656 4.546638295004541
679 659 2.889080998883543
679 669 -1.0096577207179884E1
679 671 4.2261503291608165
679 676 -2.1461379256036974E1
679 679 5.148301219384797E1
679 682 -1.5269707699233265E1
680 598 2.889080998883543
680 644 -7.883147312869037
680 647 1.7287856054879278E1
680 650 5.668144007851593
680 653 -9.544887027873166
680 657 4.546638295004541
680 670 -1.0096577207179884E1
680 677 -2.1461379256036974E1
680 680 5.148301219384797E1
680 683 -1.5269707699233265E1
680 712 4.2261503291608165
681 458 1.0025768654059434E1
681 461 -2.632733977747061
681 491 7.833390174820991E-1
681 655 -1.7393636509360334E1
681 658 1.8566704356772092
681 668 -3.7056325463285233
681 672 -9.893642373474439E-1
681 675 -8.784655329395346
681 678 -1.5269707699233663E1
681 681 5.851040457920038E1
681 711 -2.3158275049702652
682 459 1.0025768654059434E1
682 462 -2.632733977747061
682 492 7.833390174820991E-1
682 656 -1.7393636509360334E1
682 659 1.8566704356772092
682 669 -3.7056325463285233
682 671 -2.3158275049702652
682 673 -9.893642373474439E-1
682 676 -8.784655329395346
682 679 -1.5269707699233663E1
682 682 5.851040457920038E1
683 460 1.0025768654059434E1
683 463 -2.632733977747061
683 493 7.833390174820991E-1
683 598 1.8566704356772092
683 657 -1.7393636509360334E1
683 670 -3.7056325463285233
683 674 -9.893642373474439E-1
683 677 -8.784655329395346
683 680 -1.5269707699233663E1
683 683 5.851040457920038E1
683 712 -2.3158275049702652
684 651 3.239503462101098
684 658 1.128583955908043E1
684 684 3.304211204637164E1
684 686 8.020873667349207
684 692 2.9523751973041428
684 707 -1.993534077233187E1
684 710 -4.893195039446809
684 711 -1.3701472170450891E1
684 713 2.017498139853892
685 598 1.128583955908043E1
685 653 3.239503462101098
685 664 -4.893195039446809
685 685 3.304211204637164E1
685 688 8.020873667349207
685 693 2.9523751973041428
685 709 -1.993534077233187E1
685 712 -1.3701472170450891E1
685 715 2.017498139853892
686 684 8.020873667349036
686 686 3.329049235543516E1
686 689 4.137142857207209
686 692 3.578127609503067
686 694 -7.841346340413367E-1
686 704 -6.0085138543214
686 707 -1.9055330260365707E1
686 713 -7.18118837429861E-1
687 599 3.578127609503067
687 600 -7.841346340413367E-1
687 654 8.020873667349036
687 687 3.329049235543516E1
687 690 4.137142857207209
687 705 -6.0085138543214
687 708 -1.9055330260365707E1
687 714 -7.18118837429861E-1
688 685 8.020873667349036
688 688 3.329049235543516E1
688 691 4.137142857207209
688 693 3.578127609503067
688 695 -7.841346340413367E-1
688 706 -6.0085138543214
688 709 -1.9055330260365707E1
688 715 -7.18118837429861E-1
689 686 4.137142857207209
689 689 6.0844320499532785E1
689 694 9.454418047713318
689 696 -6.909912130431053
689 704 -2.9174782234212813E1
689 799 2.567241880176283
689 819 -1.8959457831601185E1
690 600 9.454418047713318
690 687 4.137142857207209
690 690 6.0844320499532785E1
690 705 -2.9174782234212813E1
690 774 2.567241880176283
690 776 -6.909912130431053
690 785 -1.8959457831601185E1
691 688 4.137142857207209
691 691 6.0844320499532785E1
691 695 9.454418047713318
691 706 -2.9174782234212813E1
691 775 2.567241880176283
691 777 -6.909912130431053
691 786 -1.8959457831601185E1
692 590 -1.2608866314800915
692 602 -1.2556048210304716E1
692 616 -4.606613419155699
692 622 3.89650381159959
692 658 -1.3753429380832765
692 684 2.9523751973041996
692 686 3.5781276095027073
692 692 8.214352389119449E1
692 694 -1.157711627467177E1
692 707 1.29396739381054E-1
692 711 3.84123722044092
692 713 -4.594410580121881E1
692 716 1.4348782988979238E1
693 592 -1.2608866314800915
693 598 -1.3753429380832765
693 604 -1.2556048210304716E1
693 618 -4.606613419155699
693 624 3.89650381159959
693 685 2.9523751973041996
693 688 3.5781276095027073
693 693 8.214352389119449E1
693 695 -1.157711627467177E1
693 709 1.29396739381054E-1
693 712 3.84123722044092
693 715 -4.594410580121881E1
693 717 1.4348782988979238E1
694 616 5.93909818347197
694 622 -6.817108235492805
694 686 -7.841346340413367E-1
694 689 9.454418047713261
694 692 -1.1577116274671932E1
694 694 9.03925734113453E1
694 696 -1.1471185815710003E1
694 704 -6.244965117930541
694 713 1.2269397533195653E1
694 716 -5.161129695910711E1
694 718 8.533983198108743
694 745 -1.1613755658885704E1
694 756 2.1605666302255965E1
695 618 5.93909818347197
695 624 -6.817108235492805
695 688 -7.841346340413367E-1
695 691 9.454418047713261
695 693 -1.1577116274671932E1
695 695 9.03925734113453E1
695 706 -6.244965117930541
695 715 1.2269397533195653E1
695 717 -5.161129695910711E1
695 770 -1.1613755658885704E1
695 777 -1.1471185815710003E1
695 788 8.533983198108743
695 792 2.1605666302255965E1
696 689 -6.909912130430712
696 694 -1.1471185815711722E1
696 696 1.352334621977769E2
696 703 -1.2880307932053583E1
696 704 2.437374486858856E1
696 716 8.99994527114032E-2
696 718 -3.587462390173279E1
696 745 1.0176386974853102E1
696 747 4.8881375649847314E-1
696 799 1.2925202088136814E1
696 803 -6.160888072976405
696 810 -6.883484802388923E-1
696 819 -2.221156919689986E1
697 660 4.743295978687854
697 697 6.323220685007766E1
697 700 5.622188467699388
697 707 -3.994269090705606E1
697 710 -2.0433551555623183E1
697 711 -2.8702571947568345E1
697 713 1.8018591226275177E1
698 661 4.743295978687854
698 663 -2.0433551555623183E1
698 671 -2.8702571947568345E1
698 698 6.323220685007766E1
698 701 5.622188467699388
698 708 -3.994269090705606E1
698 714 1.8018591226275177E1
699 662 4.743295978687854
699 664 -2.0433551555623183E1
699 699 6.323220685007766E1
699 702 5.622188467699388
699 709 -3.994269090705606E1
699 712 -2.8702571947568345E1
699 715 1.8018591226275177E1
700 697 5.622188467699246
700 700 5.22816634020851E1
700 703 2.4782507289747713
700 704 -4.012018811751502E1
700 707 -1.879146516704202E1
700 713 -1.1655755209862612E1
700 716 1.4464908361549838E1
701 601 1.4464908361549838E1
701 698 5.622188467699246
701 701 5.22816634020851E1
701 705 -4.012018811751502E1
701 708 -1.879146516704202E1
701 714 -1.1655755209862612E1
701 780 2.4782507289747713
702 699 5.622188467699246
702 702 5.22816634020851E1
702 706 -4.012018811751502E1
702 709 -1.879146516704202E1
702 715 -1.1655755209862612E1
702 717 1.4464908361549838E1
702 781 2.4782507289747713
703 696 -1.288030793205344E1
703 700 2.4782507289747713
703 703 2.7322949391226675E1
703 704 -2.328514416510106E1
703 716 1.646298811502021
703 718 2.3850339661327395
703 810 -4.020668674448814
703 819 -1.3889157661503118E1
704 686 -6.008513854321201
704 689 -2.91747822342127E1
704 694 -6.244965117930004
704 696 2.4373744868588226E1
704 700 -4.0120188117514914E1
704 703 -2.328514416510083E1
704 704 1.1634445003443713E2
704 707 1.7606135545140802
704 713 5.837610273914365
704 716 -1.844915258909203E1
704 819 5.957770799312087
705 600 -6.244965117930004
705 601 -1.844915258909203E1
705 687 -6.008513854321201
705 690 -2.91747822342127E1
705 701 -4.0120188117514914E1
705 705 1.1634445003443713E2
705 708 1.7606135545140802
705 714 5.837610273914365
705 776 2.4373744868588226E1
705 780 -2.328514416510083E1
705 785 5.957770799312087
706 688 -6.008513854321201
706 691 -2.91747822342127E1
706 695 -6.244965117930004
706 702 -4.0120188117514914E1
706 706 1.1634445003443713E2
706 709 1.7606135545140802
706 715 5.837610273914365
706 717 -1.844915258909203E1
706 777 2.4373744868588226E1
706 781 -2.328514416510083E1
706 786 5.957770799312087
707 684 -1.9935340772331188E1
707 686 -1.9055330260366304E1
707 692 1.2939673938047136E-1
707 697 -3.994269090705609E1
707 700 -1.8791465167041622E1
707 704 1.7606135545141797
707 707 9.568488686886027E1
707 710 7.070012221715096E-1
707 711 2.4772215136558756E1
707 713 -1.798367629564283E1
708 599 1.2939673938047136E-1
708 654 -1.9935340772331188E1
708 663 7.070012221715096E-1
708 671 2.4772215136558756E1
708 687 -1.9055330260366304E1
708 698 -3.994269090705609E1
708 701 -1.8791465167041622E1
708 705 1.7606135545141797
708 708 9.568488686886027E1
708 714 -1.798367629564283E1
709 664 7.070012221715096E-1
709 685 -1.9935340772331188E1
709 688 -1.9055330260366304E1
709 693 1.2939673938047136E-1
709 699 -3.994269090705609E1
709 702 -1.8791465167041622E1
709 706 1.7606135545141797
709 709 9.568488686886027E1
709 712 2.4772215136558756E1
709 715 -1.798367629564283E1
710 651 -2.229603734348629
710 660 -3.133755980708466E1
710 665 -1.9835911036796716E-2
710 668 2.2353735650459868E1
710 684 -4.893195039446354
710 697 -2.0433551555623183E1
710 707 7.070012221717086E-1
710 710 5.5248345135164136E1
710 711 -1.178346308625894E1
711 491 1.3050461377500604E1
711 602 7.628537433236957
711 651 -9.33235734536161
711 658 -3.452017875756815E1
711 660 1.8388625372207656E1
711 668 -1.8256338257786794E1
711 678 4.226150329160532
711 681 -2.3158275049698105
711 684 -1.3701472170451403E1
711 692 3.841237220440579
711 697 -2.8702571947567776E1
711 707 2.47722151365585E1
711 710 -1.1783463086258841E1
711 711 8.37969256747891E1
711 713 -1.3636770568541102E1
712 493 1.3050461377500604E1
712 598 -3.452017875756815E1
712 604 7.628537433236957
712 653 -9.33235734536161
712 662 1.8388625372207656E1
712 664 -1.1783463086258841E1
712 670 -1.8256338257786794E1
712 680 4.226150329160532
712 683 -2.3158275049698105
712 685 -1.3701472170451403E1
712 693 3.841237220440579
712 699 -2.8702571947567776E1
712 709 2.47722151365585E1
712 712 8.37969256747891E1
712 715 -1.3636770568541102E1
713 602 1.2281311782473832E1
713 622 1.1321307000095118
713 684 2.017498139853892
713 686 -7.181188374297042E-1
713 692 -4.59441058012185E1
713 694 1.2269397533195685E1
713 697 1.8018591226275603E1
713 700 -1.1655755209862413E1
713 704 5.837610273914194
713 707 -1.7983676295641523E1
713 711 -1.3636770568540506E1
713 713 6.934202963221827E1
713 716 -1.6491073698111023E1
714 599 -4.59441058012185E1
714 600 1.2269397533195685E1
714 601 -1.6491073698111023E1
714 603 1.2281311782473832E1
714 623 1.1321307000095118
714 654 2.017498139853892
714 671 -1.3636770568540506E1
714 687 -7.181188374297042E-1
714 698 1.8018591226275603E1
714 701 -1.1655755209862413E1
714 705 5.837610273914194
714 708 -1.7983676295641523E1
714 714 6.934202963221827E1
715 604 1.2281311782473832E1
715 624 1.1321307000095118
715 685 2.017498139853892
715 688 -7.181188374297042E-1
715 693 -4.59441058012185E1
715 695 1.2269397533195685E1
715 699 1.8018591226275603E1
715 702 -1.1655755209862413E1
715 706 5.837610273914194
715 709 -1.7983676295641523E1
715 712 -1.3636770568540506E1
715 715 6.934202963221827E1
715 717 -1.6491073698111023E1
716 622 -3.152120315205599
716 692 1.4348782988979162E1
716 694 -5.1611296959111E1
716 696 8.999945271279586E-2
716 700 1.4464908361549952E1
716 703 1.6462988115018504
716 704 -1.844915258909203E1
716 713 -1.6491073698110654E1
716 716 7.378744675775397E1
716 718 -6.340788225456347
716 756 -5.15551521505577
717 624 -3.152120315205599
717 693 1.4348782988979162E1
717 695 -5.1611296959111E1
717 702 1.4464908361549952E1
717 706 -1.844915258909203E1
717 715 -1.6491073698110654E1
717 717 7.378744675775397E1
717 777 8.999945271279586E-2
717 781 1.6462988115018504
717 788 -6.340788225456347
717 792 -5.15551521505577
718 694 8.533983198109244
718 696 -3.587462390173208E1
718 703 2.3850339661329887
718 716 -6.340788225455309
718 718 5.456753451055023E1
718 745 1.922648241230121
718 747 2.9843287113811385
718 754 -2.598890001000513E-1
718 756 -7.9429857071284475
718 803 -1.1564216866985504
718 810 -1.1286898535273928
718 819 -1.874002875148463
718 823 9.584261942033308E-1
719 628 7.51025527164832E-1
719 634 -6.657524739909424E-1
719 638 5.234257663714964E-1
719 719 2.2663662800990117E1
719 720 -2.2680781815416793E1
719 730 -5.100176200699337
719 846 2.1625003067769395
720 634 9.904005638019759E-1
720 638 8.089795406336062E-1
720 719 -2.2680781815416196E1
720 720 1.3995093229084245E2
720 730 3.6006679144389153E-1
720 737 1.7671364428649326E1
720 791 -2.4990585993343473E1
720 792 -6.795794652743517
720 846 -5.729423405811055
720 849 -5.990976999465507E-1
721 721 2.338638981899684E2
721 723 -6.549112522014269
721 726 5.319634965438938
721 736 -7.290353083041956E1
721 739 -1.4720812573810065
721 742 1.782698798321877E1
721 746 -9.272992437429515E1
721 748 1.4949069017302623E1
721 751 -4.62049729712987E1
721 763 -1.2356603663379957E1
721 768 -1.2371747336995412E1
721 772 -1.9988201864302937
721 923 -2.4018882410714912
722 42 5.801358064704278
722 44 -2.0903430111146832
722 568 2.2501135978323568
722 635 -2.414478204592527
722 722 8.07622014113723E1
722 725 -1.588191730478195E1
722 738 -2.722143166752288E1
722 761 -6.549112522015008
722 767 2.5502779523067048E1
723 43 5.801358064704278
723 45 -2.0903430111146832
723 608 2.2501135978323568
723 721 -6.549112522015008
723 723 8.07622014113723E1
723 726 -1.588191730478195E1
723 736 2.5502779523067048E1
723 739 -2.722143166752288E1
723 763 -2.414478204592527
724 11 5.801358064704278
724 569 2.2501135978323568
724 724 8.07622014113723E1
724 727 -1.588191730478195E1
724 728 -2.0903430111146832
724 737 2.5502779523067048E1
724 740 -2.722143166752288E1
724 762 -6.549112522015008
724 764 -2.414478204592527
725 22 4.610698556805119
725 39 4.3389044386543105
725 44 -6.871565891203272E1
725 722 -1.5881917304784963E1
725 725 2.8503533733753557E2
725 738 2.8755258222111124E1
725 761 5.319634965438853
725 765 1.8712114925312608
725 767 -4.3873904404246694E1
725 917 2.419351366484843
725 920 8.195784638455336
725 959 4.487110808933454E1
726 40 4.3389044386543105
726 45 -6.871565891203272E1
726 48 4.610698556805119
726 721 5.319634965438853
726 723 -1.5881917304784963E1
726 726 2.8503533733753557E2
726 736 -4.3873904404246694E1
726 739 2.8755258222111124E1
726 918 2.419351366484843
726 921 8.195784638455336
726 923 1.8712114925312608
726 960 4.487110808933454E1
727 23 4.610698556805119
727 41 4.3389044386543105
727 724 -1.5881917304784963E1
727 727 2.8503533733753557E2
727 728 -6.871565891203272E1
727 737 -4.3873904404246694E1
727 740 2.8755258222111124E1
727 762 5.319634965438853
727 919 2.419351366484843
727 922 8.195784638455336
727 924 1.8712114925312608
727 932 4.487110808933454E1
728 11 1.1957690335580523E1
728 23 -3.6471900117907126E1
728 35 8.158846548652008E-1
728 41 1.3929060130755502E1
728 724 -2.090343011113518
728 727 -6.8715658912033E1
728 728 1.1109891887631919E2
728 740 1.3003083052052379E1
728 932 -2.239320697938524
729 625 -5.100176200699167
729 637 -3.7858769972884446E1
729 729 4.5840265218762573E2
729 732 -7.79387717452387E1
729 736 1.0163423363836785E1
729 739 1.5563134581586011E1
729 755 2.204708376665293
729 757 6.799135845073158E1
729 760 3.600667914432094E-1
729 845 -4.827264073522031
729 848 6.44734808174104
729 857 -3.8597743870470076E1
729 955 9.922280179610397
730 638 -3.7858769972884446E1
730 719 -5.100176200699167
730 720 3.600667914432094E-1
730 730 4.5840265218762573E2
730 733 -7.79387717452387E1
730 734 9.922280179610397
730 737 1.0163423363836785E1
730 740 1.5563134581586011E1
730 791 2.204708376665293
730 792 6.799135845073158E1
730 846 -4.827264073522031
730 849 6.44734808174104
730 858 -3.8597743870470076E1
731 19 -1.5627830693853769E1
731 570 -1.1612917367825668E1
731 636 3.153558539988731
731 731 2.090660870129109E2
731 738 -5.2832648127763676E1
731 766 -7.79387717452396E1
731 767 2.080462961849369E1
731 954 -2.174641658136009E1
731 957 -2.522797938509358E1
732 20 -1.5627830693853769E1
732 571 -1.1612917367825668E1
732 637 3.153558539988731
732 729 -7.79387717452396E1
732 732 2.090660870129109E2
732 736 2.080462961849369E1
732 739 -5.2832648127763676E1
732 955 -2.174641658136009E1
732 958 -2.522797938509358E1
733 21 -1.5627830693853769E1
733 572 -1.1612917367825668E1
733 638 3.153558539988731
733 730 -7.79387717452396E1
733 733 2.090660870129109E2
733 734 -2.174641658136009E1
733 735 -2.522797938509358E1
733 737 2.080462961849369E1
733 740 -5.2832648127763676E1
734 18 -2.1853382234662138
734 23 3.8508743880461713
734 730 9.922280179610375
734 733 -2.174641658135854E1
734 734 3.3789159036929E2
734 735 -1.4432524501807984E2
734 737 -2.041246654876693E1
734 740 2.1284119045322576E1
734 855 -5.286388649666452E1
734 858 -2.5771781288607755E1
734 932 -5.980848661005182E1
734 953 1.8838039318132626E1
735 14 -6.643149434910915
735 18 7.398585346880104
735 21 -2.331401972202096E1
735 23 -5.1537871165852344E1
735 733 -2.522797938509014E1
735 734 -1.4432524501808348E2
735 735 3.472804417989386E2
735 740 6.1057634731713414E1
735 932 8.106716593620638E1
736 48 -6.421243225882255
736 721 -7.290353083041923E1
736 723 2.550277952306746E1
736 726 -4.387390440424567E1
736 729 1.0163423363837595E1
736 732 2.080462961849812E1
736 736 4.7654350258508754E2
736 739 -1.5365978821115775E1
736 746 4.246783680535199E1
736 748 1.2739668147153907E1
736 751 3.2213858878396096E1
736 755 -1.038162675536691E1
736 757 9.345284260192015
736 760 1.7671364428649667E1
736 836 -2.9638827441489717E1
736 838 -5.6517977299047885E1
736 854 4.555900309839336E1
736 857 -6.981535672896424
736 860 7.346950560990972E-1
736 921 2.249264256751246
736 923 -1.916713671706242E1
736 926 -2.5228838305865736E1
736 955 -2.0412466548765238E1
736 960 -9.589331204092132E1
737 23 -6.421243225882255
737 720 1.7671364428649667E1
737 724 2.550277952306746E1
737 727 -4.387390440424567E1
737 730 1.0163423363837595E1
737 733 2.080462961849812E1
737 734 -2.0412466548765238E1
737 737 4.7654350258508754E2
737 740 -1.5365978821115775E1
737 752 3.2213858878396096E1
737 762 -7.290353083041923E1
737 770 4.246783680535199E1
737 771 1.2739668147153907E1
737 791 -1.038162675536691E1
737 792 9.345284260192015
737 837 -2.9638827441489717E1
737 839 -5.6517977299047885E1
737 855 4.555900309839336E1
737 858 -6.981535672896424
737 861 7.346950560990972E-1
737 922 2.249264256751246
737 924 -1.916713671706242E1
737 927 -2.5228838305865736E1
737 932 -9.589331204092132E1
738 19 3.343432994529947E1
738 22 -4.4991293549405576E1
738 42 -4.5914005340586016E1
738 44 1.3003083052052606E1
738 568 -1.70429894493248E1
738 570 -4.6806552689659696E1
738 583 -1.165087761817811E1
738 635 1.9024173865695147E1
738 636 2.468567879742047E1
738 639 -6.676048249405254E1
738 722 -2.7221431667524882E1
738 725 2.875525822211207E1
738 731 -5.283264812776595E1
738 738 4.7256474121035063E2
738 745 4.2725708228272204E1
738 756 3.982164484595409E1
738 761 -1.472081257380367
738 766 1.5563134581586231E1
738 767 -1.5365978821111753E1
738 954 2.1284119045320555E1
738 957 6.105763473171404E1
739 20 3.343432994529947E1
739 43 -4.5914005340586016E1
739 45 1.3003083052052606E1
739 48 -4.4991293549405576E1
739 571 -4.6806552689659696E1
739 584 -1.165087761817811E1
739 608 -1.70429894493248E1
739 637 2.468567879742047E1
739 640 -6.676048249405254E1
739 721 -1.472081257380367
739 723 -2.7221431667524882E1
739 726 2.875525822211207E1
739 729 1.5563134581586231E1
739 732 -5.283264812776595E1
739 736 -1.5365978821111753E1
739 739 4.7256474121035063E2
739 746 4.2725708228272204E1
739 757 3.982164484595409E1
739 763 1.9024173865695147E1
739 955 2.1284119045320555E1
739 958 6.105763473171404E1
740 11 -4.5914005340586016E1
740 21 3.343432994529947E1
740 23 -4.4991293549405576E1
740 569 -1.70429894493248E1
740 572 -4.6806552689659696E1
740 585 -1.165087761817811E1
740 638 2.468567879742047E1
740 641 -6.676048249405254E1
740 724 -2.7221431667524882E1
740 727 2.875525822211207E1
740 728 1.3003083052052606E1
740 730 1.5563134581586231E1
740 733 -5.283264812776595E1
740 734 2.1284119045320555E1
740 735 6.105763473171404E1
740 737 -1.5365978821111753E1
740 740 4.7256474121035063E2
740 762 -1.472081257380367
740 764 1.9024173865695147E1
740 770 4.2725708228272204E1
740 792 3.982164484595409E1
741 589 5.930091533916652
741 619 -1.1108330012605563E1
741 635 -4.111565038265724
741 741 4.770901553657086E1
741 744 2.7827741490709172
741 750 -3.549812086083534E1
741 761 1.7826987983219112E1
742 614 5.930091533916652
742 721 1.7826987983219112E1
742 742 4.770901553657086E1
742 751 -3.549812086083534E1
742 753 -1.1108330012605563E1
742 763 -4.111565038265724
742 768 2.7827741490709172
743 615 5.930091533916652
743 620 -1.1108330012605563E1
743 743 4.770901553657086E1
743 752 -3.549812086083534E1
743 762 1.7826987983219112E1
743 764 -4.111565038265724
743 769 2.7827741490709172
744 741 2.7827741490709172
744 744 5.032128409672153E1
744 749 -3.775429798717755E1
744 750 -3.7911420910597258
744 761 -1.2371747336997004E1
744 765 5.156729670765685E-1
744 874 2.3404228812380836
745 616 1.7885792201729146E1
745 619 -1.5333892202255257E1
745 622 9.909902006705089
745 635 -3.7245849311287714E1
745 639 1.4793458094149889E1
745 694 -1.161375565888525E1
745 696 1.0176386974853386E1
745 718 1.922648241230334
745 738 4.2725708228271195E1
745 745 7.686413011586551E2
745 747 1.3003468920497696E1
745 750 -4.278138113972565E1
745 756 -4.5074484903961843E2
745 761 -9.272992437429536E1
745 767 4.246783680535228E1
746 600 -1.161375565888525E1
746 617 1.7885792201729146E1
746 623 9.909902006705089
746 640 1.4793458094149889E1
746 721 -9.272992437429536E1
746 736 4.246783680535228E1
746 739 4.2725708228271195E1
746 746 7.686413011586551E2
746 748 1.3003468920497696E1
746 751 -4.278138113972565E1
746 753 -1.5333892202255257E1
746 757 -4.5074484903961843E2
746 763 -3.7245849311287714E1
746 776 1.0176386974853386E1
746 787 1.922648241230334
747 696 4.888137564988284E-1
747 718 2.9843287113813837
747 745 1.300346892049728E1
747 747 2.6404003194240966E2
747 749 -2.0324589140997574E1
747 750 -3.075435226078246E1
747 754 -6.516785309897372E1
747 756 1.653028333775256E1
747 761 1.4949069017302545E1
747 765 -2.250515169659624E1
747 767 1.2739668147155044E1
747 803 1.3659614149367982
747 823 -1.2596929498671031E1
747 875 -1.8624275551957794
748 721 1.4949069017302545E1
748 736 1.2739668147155044E1
748 746 1.300346892049728E1
748 748 2.6404003194240966E2
748 751 -3.075435226078246E1
748 755 -6.516785309897372E1
748 757 1.653028333775256E1
748 772 -2.0324589140997574E1
748 776 4.888137564988284E-1
748 778 1.3659614149367982
748 787 2.9843287113813837
748 789 -1.2596929498671031E1
748 836 -1.8624275551957794
748 923 -2.250515169659624E1
749 744 -3.7754297987177665E1
749 747 -2.03245891409978E1
749 749 9.916463989276622E1
749 750 2.9620197541960067
749 761 -1.9988201864300947
749 765 -2.1740881500520885E1
749 874 -6.092239710128297
749 875 5.4936746100435805
749 876 1.0430149028386587E1
750 619 3.6169843788595415
750 635 2.1285147459413395E1
750 741 -3.5498120860835115E1
750 744 -3.7911420910598963
750 745 -4.278138113972906E1
750 747 -3.0754352260783925E1
750 749 2.9620197541957793
750 750 1.4265594310025062E2
750 761 -4.620497297129643E1
750 767 3.2213858878396984E1
751 721 -4.620497297129643E1
751 736 3.2213858878396984E1
751 742 -3.5498120860835115E1
751 746 -4.278138113972906E1
751 748 -3.0754352260783925E1
751 751 1.4265594310025062E2
751 753 3.6169843788595415
751 763 2.1285147459413395E1
751 768 -3.7911420910598963
751 772 2.9620197541957793
752 620 3.6169843788595415
752 737 3.2213858878396984E1
752 743 -3.5498120860835115E1
752 752 1.4265594310025062E2
752 762 -4.620497297129643E1
752 764 2.1285147459413395E1
752 769 -3.7911420910598963
752 770 -4.278138113972906E1
752 771 -3.0754352260783925E1
752 773 2.9620197541957793
753 594 2.202657886591055
753 614 -1.777779563882177E1
753 617 -4.0217828010090216E1
753 640 2.1082390560027537E1
753 742 -1.110833001260545E1
753 746 -1.5333892202255555E1
753 751 3.6169843788588025
753 753 1.5556834782824131E2
753 763 -4.662712626127944E1
754 718 -2.5988900009994287E-1
754 747 -6.51678530989735E1
754 754 1.9137511906858634E2
754 756 4.8294096709151795
754 759 -2.4990585993343462E1
754 766 2.2047083766650952
754 767 -1.0381626755364252E1
754 823 -1.0933629814282142E1
754 847 -1.0697260408749258E1
754 856 1.911643201404875E1
754 875 -7.406767259232469
754 877 9.520600169155536
755 729 2.2047083766650952
755 736 -1.0381626755364252E1
755 748 -6.51678530989735E1
755 755 1.9137511906858634E2
755 757 4.8294096709151795
755 760 -2.4990585993343462E1
755 787 -2.5988900009994287E-1
755 789 -1.0933629814282142E1
755 836 -7.406767259232469
755 838 9.520600169155536
755 848 -1.0697260408749258E1
755 857 1.911643201404875E1
756 622 1.0319976667677503E1
756 632 -3.221650316289372E1
756 636 -5.901869229512407
756 639 -6.391743490977874E1
756 694 2.1605666302256136E1
756 716 -5.155515215055851
756 718 -7.942985707128902
756 738 3.982164484595456E1
756 745 -4.5074484903961775E2
756 747 1.6530283337752547E1
756 754 4.829409670914703
756 756 8.498861530518401E2
756 759 -6.795794652743005
756 766 6.799135845073098E1
756 767 9.34528426019268
757 600 2.1605666302256136E1
757 601 -5.155515215055851
757 623 1.0319976667677503E1
757 633 -3.221650316289372E1
757 637 -5.901869229512407
757 640 -6.391743490977874E1
757 729 6.799135845073098E1
757 736 9.34528426019268
757 739 3.982164484595456E1
757 746 -4.5074484903961775E2
757 748 1.6530283337752547E1
757 755 4.829409670914703
757 757 8.498861530518401E2
757 760 -6.795794652743005
757 787 -7.942985707128902
758 626 7.51025527164832E-1
758 632 -6.657524739909424E-1
758 636 5.234257663714964E-1
758 758 2.2663662800990117E1
758 759 -2.2680781815416793E1
758 766 -5.100176200699337
758 844 2.1625003067769395
759 632 9.904005638019759E-1
759 636 8.089795406336062E-1
759 754 -2.4990585993343473E1
759 756 -6.795794652743517
759 758 -2.2680781815416196E1
759 759 1.3995093229084245E2
759 766 3.6006679144389153E-1
759 767 1.7671364428649326E1
759 844 -5.729423405811055
759 847 -5.990976999465507E-1
760 625 -2.2680781815416196E1
760 633 9.904005638019759E-1
760 637 8.089795406336062E-1
760 729 3.6006679144389153E-1
760 736 1.7671364428649326E1
760 755 -2.4990585993343473E1
760 757 -6.795794652743517
760 760 1.3995093229084245E2
760 845 -5.729423405811055
760 848 -5.990976999465507E-1
761 635 -1.2356603663379957E1
761 722 -6.549112522014269
761 725 5.319634965438938
761 738 -1.4720812573810065
761 741 1.782698798321877E1
761 744 -1.2371747336995412E1
761 745 -9.272992437429515E1
761 747 1.4949069017302623E1
761 749 -1.9988201864302937
761 750 -4.62049729712987E1
761 761 2.338638981899684E2
761 765 -2.4018882410714912
761 767 -7.290353083041956E1
762 724 -6.549112522014269
762 727 5.319634965438938
762 737 -7.290353083041956E1
762 740 -1.4720812573810065
762 743 1.782698798321877E1
762 752 -4.62049729712987E1
762 762 2.338638981899684E2
762 764 -1.2356603663379957E1
762 769 -1.2371747336995412E1
762 770 -9.272992437429515E1
762 771 1.4949069017302623E1
762 773 -1.9988201864302937
762 924 -2.4018882410714912
763 594 2.5766510715270527E1
763 608 -1.786651302299516E1
763 610 2.7312189967817773
763 614 7.636480921236171
763 617 6.923085226306716
763 640 -6.1473819724586285
763 721 -1.2356603663379559E1
763 723 -2.4144782045930953
763 739 1.902417386569421E1
763 742 -4.111565038265155
763 746 -3.724584931128942E1
763 751 2.1285147459413565E1
763 753 -4.662712626128051E1
763 763 2.5253264047693514E2
764 569 -1.786651302299516E1
764 611 2.7312189967817773
764 615 7.636480921236171
764 618 6.923085226306716
764 620 -4.662712626128051E1
764 621 2.5766510715270527E1
764 641 -6.1473819724586285
764 724 -2.4144782045930953
764 740 1.902417386569421E1
764 743 -4.111565038265155
764 752 2.1285147459413565E1
764 762 -1.2356603663379559E1
764 764 2.5253264047693514E2
764 770 -3.724584931128942E1
765 725 1.8712114925322556
765 744 5.156729670765117E-1
765 747 -2.250515169659678E1
765 749 -2.1740881500518697E1
765 761 -2.4018882410715054
765 765 1.2034357189639368E2
765 767 -1.91671367170631E1
765 874 -1.4948871480269986E1
765 875 1.7317984557966077
765 876 3.910760570194052
765 920 1.2345824177487572E1
765 925 -5.729430690010815
766 636 -3.7858769972884446E1
766 731 -7.79387717452387E1
766 738 1.5563134581586011E1
766 754 2.204708376665293
766 756 6.799135845073158E1
766 758 -5.100176200699167
766 759 3.600667914432094E-1
766 766 4.5840265218762573E2
766 767 1.0163423363836785E1
766 844 -4.827264073522031
766 847 6.44734808174104
766 856 -3.8597743870470076E1
766 954 9.922280179610397
767 22 -6.421243225882255
767 722 2.550277952306746E1
767 725 -4.387390440424567E1
767 731 2.080462961849812E1
767 738 -1.5365978821115775E1
767 745 4.246783680535199E1
767 747 1.2739668147153907E1
767 750 3.2213858878396096E1
767 754 -1.038162675536691E1
767 756 9.345284260192015
767 759 1.7671364428649667E1
767 761 -7.290353083041923E1
767 765 -1.916713671706242E1
767 766 1.0163423363837595E1
767 767 4.7654350258508754E2
767 853 4.555900309839336E1
767 856 -6.981535672896424
767 859 7.346950560990972E-1
767 875 -2.9638827441489717E1
767 877 -5.6517977299047885E1
767 920 2.249264256751246
767 925 -2.5228838305865736E1
767 954 -2.0412466548765238E1
767 959 -9.589331204092132E1
768 721 -1.2371747336997004E1
768 742 2.7827741490709172
768 751 -3.7911420910597258
768 768 5.032128409672153E1
768 772 -3.775429798717755E1
768 901 2.3404228812380836
768 923 5.156729670765685E-1
769 743 2.7827741490709172
769 752 -3.7911420910597258
769 762 -1.2371747336997004E1
769 769 5.032128409672153E1
769 773 -3.775429798717755E1
769 902 2.3404228812380836
769 924 5.156729670765685E-1
770 618 1.7885792201729146E1
770 620 -1.5333892202255257E1
770 624 9.909902006705089
770 641 1.4793458094149889E1
770 695 -1.161375565888525E1
770 737 4.246783680535228E1
770 740 4.2725708228271195E1
770 752 -4.278138113972565E1
770 762 -9.272992437429536E1
770 764 -3.7245849311287714E1
770 770 7.686413011586551E2
770 771 1.3003468920497696E1
770 777 1.0176386974853386E1
770 788 1.922648241230334
770 792 -4.5074484903961843E2
771 737 1.2739668147155044E1
771 752 -3.075435226078246E1
771 762 1.4949069017302545E1
771 770 1.300346892049728E1
771 771 2.6404003194240966E2
771 773 -2.0324589140997574E1
771 777 4.888137564988284E-1
771 779 1.3659614149367982
771 788 2.9843287113813837
771 790 -1.2596929498671031E1
771 791 -6.516785309897372E1
771 792 1.653028333775256E1
771 837 -1.8624275551957794
771 924 -2.250515169659624E1
772 721 -1.9988201864300947
772 748 -2.03245891409978E1
772 751 2.9620197541960067
772 768 -3.7754297987177665E1
772 772 9.916463989276622E1
772 836 5.4936746100435805
772 901 -6.092239710128297
772 909 1.0430149028386587E1
772 923 -2.1740881500520885E1
773 752 2.9620197541960067
773 762 -1.9988201864300947
773 769 -3.7754297987177665E1
773 771 -2.03245891409978E1
773 773 9.916463989276622E1
773 837 5.4936746100435805
773 902 -6.092239710128297
773 910 1.0430149028386587E1
773 924 -2.1740881500520885E1
774 690 2.5672418801763115
774 774 6.188402418709211E1
774 776 1.2925202088136416E1
774 778 -2.212923861264292E1
774 784 -2.5419018710569873E1
774 785 -3.28750782400658E1
774 801 2.531880163001489
775 691 2.5672418801763115
775 775 6.188402418709211E1
775 777 1.2925202088136416E1
775 779 -2.212923861264292E1
775 786 -3.28750782400658E1
775 802 2.531880163001489
775 818 -2.5419018710569873E1
776 600 -1.1471185815711722E1
776 601 8.99994527114032E-2
776 690 -6.909912130430712
776 705 2.437374486858856E1
776 746 1.0176386974853102E1
776 748 4.8881375649847314E-1
776 774 1.2925202088136814E1
776 776 1.352334621977769E2
776 778 -6.160888072976405
776 780 -1.2880307932053583E1
776 782 -6.883484802388923E-1
776 785 -2.221156919689986E1
776 787 -3.587462390173279E1
777 691 -6.909912130430712
777 695 -1.1471185815711722E1
777 706 2.437374486858856E1
777 717 8.99994527114032E-2
777 770 1.0176386974853102E1
777 771 4.8881375649847314E-1
777 775 1.2925202088136814E1
777 777 1.352334621977769E2
777 779 -6.160888072976405
777 781 -1.2880307932053583E1
777 783 -6.883484802388923E-1
777 786 -2.221156919689986E1
777 788 -3.587462390173279E1
778 748 1.3659614149364856
778 774 -2.2129238612642947E1
778 776 -6.160888072976348
778 778 1.3041864957998945E2
778 782 -2.952837231687808
778 784 -1.3379582801353964E1
778 785 1.3612353999174463E1
778 787 -1.1564216866987778
778 789 8.052979440974354
778 801 1.1719971565911209E1
778 805 -1.8036476959501755E1
778 812 -2.1669453579721903E1
778 831 -8.902291313761694
778 834 2.9469872078987304E1
778 836 2.209071754344336
779 771 1.3659614149364856
779 775 -2.2129238612642947E1
779 777 -6.160888072976348
779 779 1.3041864957998945E2
779 783 -2.952837231687808
779 786 1.3612353999174463E1
779 788 -1.1564216866987778
779 790 8.052979440974354
779 802 1.1719971565911209E1
779 806 -1.8036476959501755E1
779 813 -2.1669453579721903E1
779 818 -1.3379582801353964E1
779 832 -8.902291313761694
779 835 2.9469872078987304E1
779 837 2.209071754344336
780 601 1.646298811502021
780 701 2.4782507289747713
780 705 -2.328514416510106E1
780 776 -1.288030793205344E1
780 780 2.7322949391226675E1
780 782 -4.020668674448814
780 785 -1.3889157661503118E1
780 787 2.3850339661327395
781 702 2.4782507289747713
781 706 -2.328514416510106E1
781 717 1.646298811502021
781 777 -1.288030793205344E1
781 781 2.7322949391226675E1
781 783 -4.020668674448814
781 786 -1.3889157661503118E1
781 788 2.3850339661327395
782 776 -6.883484802388817E-1
782 778 -2.9528372316870057
782 780 -4.0206686744487286
782 782 2.518932221717067E1
782 784 -9.300449502804604
782 785 3.829607628300886
782 787 -1.1286898535271563
782 789 -1.5758207300975897
782 812 2.1088951653121768E-1
783 777 -6.883484802388817E-1
783 779 -2.9528372316870057
783 781 -4.0206686744487286
783 783 2.518932221717067E1
783 786 3.829607628300886
783 788 -1.1286898535271563
783 790 -1.5758207300975897
783 813 2.1088951653121768E-1
783 818 -9.300449502804604
784 774 -2.54190187105699E1
784 778 -1.3379582801355724E1
784 782 -9.300449502803808
784 784 5.105728131760196E1
784 785 6.148339141800427
784 801 -2.6231594672270433E1
784 805 1.7868390654500026E1
784 812 -1.178611095319936
784 815 3.0133706685995776
785 690 -1.8959457831600957E1
785 705 5.957770799312371
785 774 -3.287507824006614E1
785 776 -2.2211569196900825E1
785 778 1.3612353999175426E1
785 780 -1.3889157661503642E1
785 782 3.8296076283004945
785 784 6.148339141800179
785 785 6.3405592620885926E1
785 787 -1.8740028751483777
786 691 -1.8959457831600957E1
786 706 5.957770799312371
786 775 -3.287507824006614E1
786 777 -2.2211569196900825E1
786 779 1.3612353999175426E1
786 781 -1.3889157661503642E1
786 783 3.8296076283004945
786 786 6.3405592620885926E1
786 788 -1.8740028751483777
786 818 6.148339141800179
787 600 8.533983198109244
787 601 -6.340788225455309
787 746 1.922648241230121
787 748 2.9843287113811385
787 755 -2.598890001000513E-1
787 757 -7.9429857071284475
787 776 -3.587462390173208E1
787 778 -1.1564216866985504
787 780 2.3850339661329887
787 782 -1.1286898535273928
787 785 -1.874002875148463
787 787 5.456753451055023E1
787 789 9.584261942033308E-1
788 695 8.533983198109244
788 717 -6.340788225455309
788 770 1.922648241230121
788 771 2.9843287113811385
788 777 -3.587462390173208E1
788 779 -1.1564216866985504
788 781 2.3850339661329887
788 783 -1.1286898535273928
788 786 -1.874002875148463
788 788 5.456753451055023E1
788 790 9.584261942033308E-1
788 791 -2.598890001000513E-1
788 792 -7.9429857071284475
789 748 -1.2596929498671201E1
789 755 -1.0933629814280323E1
789 778 8.052979440973601
789 782 -1.5758207300967086
789 787 9.584261942029044E-1
789 789 8.29666288018251E1
789 812 -1.0703771816500415E1
789 825 2.2262624258183745
789 831 1.1566178341284342E1
789 834 -5.341184576133187
789 836 -1.0042609889177436
789 838 -1.412703472928375E-1
790 771 -1.2596929498671201E1
790 779 8.052979440973601
790 783 -1.5758207300967086
790 788 9.584261942029044E-1
790 790 8.29666288018251E1
790 791 -1.0933629814280323E1
790 813 -1.0703771816500415E1
790 826 2.2262624258183745
790 832 1.1566178341284342E1
790 835 -5.341184576133187
790 837 -1.0042609889177436
790 839 -1.412703472928375E-1
791 720 -2.4990585993343462E1
791 730 2.2047083766650952
791 737 -1.0381626755364252E1
791 771 -6.51678530989735E1
791 788 -2.5988900009994287E-1
791 790 -1.0933629814282142E1
791 791 1.9137511906858634E2
791 792 4.8294096709151795
791 837 -7.406767259232469
791 839 9.520600169155536
791 849 -1.0697260408749258E1
791 858 1.911643201404875E1
792 624 1.0319976667677503E1
792 634 -3.221650316289372E1
792 638 -5.901869229512407
792 641 -6.391743490977874E1
792 695 2.1605666302256136E1
792 717 -5.155515215055851
792 720 -6.795794652743005
792 730 6.799135845073098E1
792 737 9.34528426019268
792 740 3.982164484595456E1
792 770 -4.5074484903961775E2
792 771 1.6530283337752547E1
792 788 -7.942985707128902
792 791 4.829409670914703
792 792 8.498861530518401E2
793 793 1.8280964544070834E1
793 796 -7.5917965492331305
793 800 2.392478476059665E-1
793 804 1.884100534590715
793 807 4.4895833334035915
793 814 -5.384133564411187E-1
793 827 -7.470528143096828
793 833 -6.147728663343049
794 794 1.8280964544070834E1
794 797 -7.5917965492331305
794 801 2.392478476059665E-1
794 805 1.884100534590715
794 808 4.4895833334035915
794 815 -5.384133564411187E-1
794 828 -7.470528143096828
794 834 -6.147728663343049
795 795 1.8280964544070834E1
795 798 -7.5917965492331305
795 802 2.392478476059665E-1
795 806 1.884100534590715
795 809 4.4895833334035915
795 816 -5.384133564411187E-1
795 829 -7.470528143096828
795 835 -6.147728663343049
796 793 -7.591796549233585
796 796 1.0528555548556575E1
796 804 4.4523163968506196E-1
796 811 -8.389460271934972E-1
796 814 -3.906146961694503E-1
796 820 1.2936123140195144E-1
796 827 1.7037351523065922
796 833 2.0131166965359206
797 794 -7.591796549233585
797 797 1.0528555548556575E1
797 805 4.4523163968506196E-1
797 812 -8.389460271934972E-1
797 815 -3.906146961694503E-1
797 821 1.2936123140195144E-1
797 828 1.7037351523065922
797 834 2.0131166965359206
798 795 -7.591796549233585
798 798 1.0528555548556575E1
798 806 4.4523163968506196E-1
798 813 -8.389460271934972E-1
798 816 -3.906146961694503E-1
798 822 1.2936123140195144E-1
798 829 1.7037351523065922
798 835 2.0131166965359206
799 689 2.5672418801763115
799 696 1.2925202088136416E1
799 799 6.188402418709211E1
799 800 2.531880163001489
799 803 -2.212923861264292E1
799 817 -2.5419018710569873E1
799 819 -3.28750782400658E1
800 793 2.3924784760589546E-1
800 799 2.5318801630015173
800 800 5.156324620935004E1
800 803 1.1719971565911209E1
800 804 -3.205153698797517E1
800 814 -1.4664283853485756E1
800 817 -2.623159467227063E1
801 774 2.5318801630015173
801 778 1.1719971565911209E1
801 784 -2.623159467227063E1
801 794 2.3924784760589546E-1
801 801 5.156324620935004E1
801 805 -3.205153698797517E1
801 815 -1.4664283853485756E1
802 775 2.5318801630015173
802 779 1.1719971565911209E1
802 795 2.3924784760589546E-1
802 802 5.156324620935004E1
802 806 -3.205153698797517E1
802 816 -1.4664283853485756E1
802 818 -2.623159467227063E1
803 696 -6.160888072976348
803 718 -1.1564216866987778
803 747 1.3659614149364856
803 799 -2.2129238612642947E1
803 800 1.1719971565911209E1
803 803 1.3041864957998945E2
803 804 -1.8036476959501755E1
803 810 -2.952837231687808
803 811 -2.1669453579721903E1
803 817 -1.3379582801353964E1
803 819 1.3612353999174463E1
803 823 8.052979440974354
803 830 -8.902291313761694
803 833 2.9469872078987304E1
803 875 2.209071754344336
804 793 1.8841005345906723
804 796 4.4523163968415247E-1
804 800 -3.2051536987975624E1
804 803 -1.8036476959501428E1
804 804 5.4434243532493525E1
804 807 -6.93827933208123
804 811 -1.0514805022594075E1
804 814 2.7449275691469666
804 817 1.7868390654499002E1
804 827 1.4206689992883142E1
804 830 -1.9613701281595284
804 833 -1.8075395287916905E1
805 778 -1.8036476959501428E1
805 784 1.7868390654499002E1
805 794 1.8841005345906723
805 797 4.4523163968415247E-1
805 801 -3.2051536987975624E1
805 805 5.4434243532493525E1
805 808 -6.93827933208123
805 812 -1.0514805022594075E1
805 815 2.7449275691469666
805 828 1.4206689992883142E1
805 831 -1.9613701281595284
805 834 -1.8075395287916905E1
806 779 -1.8036476959501428E1
806 795 1.8841005345906723
806 798 4.4523163968415247E-1
806 802 -3.2051536987975624E1
806 806 5.4434243532493525E1
806 809 -6.93827933208123
806 813 -1.0514805022594075E1
806 816 2.7449275691469666
806 818 1.7868390654499002E1
806 829 1.4206689992883142E1
806 832 -1.9613701281595284
806 835 -1.8075395287916905E1
807 793 4.489583333403897
807 804 -6.938279332081116
807 807 4.858114011871652E1
807 827 -5.4348745167521486E1
807 830 2.0993133098088563
807 865 6.03902846588887
808 794 4.489583333403897
808 805 -6.938279332081116
808 808 4.858114011871652E1
808 828 -5.4348745167521486E1
808 831 2.0993133098088563
808 866 6.03902846588887
809 795 4.489583333403897
809 806 -6.938279332081116
809 809 4.858114011871652E1
809 829 -5.4348745167521486E1
809 832 2.0993133098088563
809 867 6.03902846588887
810 696 -6.883484802388817E-1
810 703 -4.0206686744487286
810 718 -1.1286898535271563
810 803 -2.9528372316870057
810 810 2.518932221717067E1
810 811 2.1088951653121768E-1
810 817 -9.300449502804604
810 819 3.829607628300886
810 823 -1.5758207300975897
811 796 -8.389460271935931E-1
811 803 -2.1669453579721697E1
811 804 -1.0514805022593649E1
811 810 2.1088951653113241E-1
811 811 4.023743038316549E1
811 814 -7.089367334544505E-2
811 817 -1.178611095321517
811 823 -1.0703771816500401E1
811 833 -3.027800044286348
812 778 -2.1669453579721697E1
812 782 2.1088951653113241E-1
812 784 -1.178611095321517
812 789 -1.0703771816500401E1
812 797 -8.389460271935931E-1
812 805 -1.0514805022593649E1
812 812 4.023743038316549E1
812 815 -7.089367334544505E-2
812 834 -3.027800044286348
813 779 -2.1669453579721697E1
813 783 2.1088951653113241E-1
813 790 -1.0703771816500401E1
813 798 -8.389460271935931E-1
813 806 -1.0514805022593649E1
813 813 4.023743038316549E1
813 816 -7.089367334544505E-2
813 818 -1.178611095321517
813 835 -3.027800044286348
814 793 -5.384133564411187E-1
814 796 -3.906146961694503E-1
814 800 -1.466428385348587E1
814 804 2.744927569147194
814 811 -7.089367334507557E-2
814 814 1.2447361423346592E1
814 817 3.013370668599581
815 784 3.013370668599581
815 794 -5.384133564411187E-1
815 797 -3.906146961694503E-1
815 801 -1.466428385348587E1
815 805 2.744927569147194
815 812 -7.089367334507557E-2
815 815 1.2447361423346592E1
816 795 -5.384133564411187E-1
816 798 -3.906146961694503E-1
816 802 -1.466428385348587E1
816 806 2.744927569147194
816 813 -7.089367334507557E-2
816 816 1.2447361423346592E1
816 818 3.013370668599581
817 799 -2.54190187105699E1
817 800 -2.6231594672270433E1
817 803 -1.3379582801355724E1
817 804 1.7868390654500026E1
817 810 -9.300449502803808
817 811 -1.178611095319936
817 814 3.0133706685995776
817 817 5.105728131760196E1
817 819 6.148339141800427
818 775 -2.54190187105699E1
818 779 -1.3379582801355724E1
818 783 -9.300449502803808
818 786 6.148339141800427
818 802 -2.6231594672270433E1
818 806 1.7868390654500026E1
818 813 -1.178611095319936
818 816 3.0133706685995776
818 818 5.105728131760196E1
819 689 -1.8959457831600957E1
819 696 -2.2211569196900825E1
819 703 -1.3889157661503642E1
819 704 5.957770799312371
819 718 -1.8740028751483777
819 799 -3.287507824006614E1
819 803 1.3612353999175426E1
819 810 3.8296076283004945
819 817 6.148339141800179
819 819 6.3405592620885926E1
820 796 1.293612314022755E-1
820 820 1.2153636819910702E1
820 824 1.6054888704293262
820 827 -1.3100754079626967E1
820 833 -4.9958609302757395E-1
820 868 3.966145833405335
821 797 1.293612314022755E-1
821 821 1.2153636819910702E1
821 825 1.6054888704293262
821 828 -1.3100754079626967E1
821 834 -4.9958609302757395E-1
821 869 3.966145833405335
822 798 1.293612314022755E-1
822 822 1.2153636819910702E1
822 826 1.6054888704293262
822 829 -1.3100754079626967E1
822 835 -4.9958609302757395E-1
822 870 3.966145833405335
823 718 9.584261942029044E-1
823 747 -1.2596929498671201E1
823 754 -1.0933629814280323E1
823 803 8.052979440973601
823 810 -1.5758207300967086
823 811 -1.0703771816500415E1
823 823 8.29666288018251E1
823 824 2.2262624258183745
823 830 1.1566178341284342E1
823 833 -5.341184576133187
823 875 -1.0042609889177436
823 877 -1.412703472928375E-1
824 820 1.6054888704294399
824 823 2.2262624258183075
824 824 6.909995069665756E1
824 827 -4.805683015457306
824 830 -1.892989737899262E1
824 833 1.346068865827057E-1
824 865 5.792390471360129
824 868 -7.0520854601456335
824 875 1.2949204586411298
824 877 -2.8062837099498587E1
825 789 2.2262624258183075
825 821 1.6054888704294399
825 825 6.909995069665756E1
825 828 -4.805683015457306
825 831 -1.892989737899262E1
825 834 1.346068865827057E-1
825 836 1.2949204586411298
825 838 -2.8062837099498587E1
825 866 5.792390471360129
825 869 -7.0520854601456335
826 790 2.2262624258183075
826 822 1.6054888704294399
826 826 6.909995069665756E1
826 829 -4.805683015457306
826 832 -1.892989737899262E1
826 835 1.346068865827057E-1
826 837 1.2949204586411298
826 839 -2.8062837099498587E1
826 867 5.792390471360129
826 870 -7.0520854601456335
827 793 -7.470528143095407
827 796 1.7037351523065354
827 804 1.4206689992882744E1
827 807 -5.434874516752154E1
827 820 -1.3100754079626967E1
827 824 -4.8056830154568795
827 827 9.462280671705366E1
827 830 -3.032691965501997
827 833 -3.176985719390615
827 865 -9.525068792263006E-1
827 868 -6.164102546208317
828 794 -7.470528143095407
828 797 1.7037351523065354
828 805 1.4206689992882744E1
828 808 -5.434874516752154E1
828 821 -1.3100754079626967E1
828 825 -4.8056830154568795
828 828 9.462280671705366E1
828 831 -3.032691965501997
828 834 -3.176985719390615
828 866 -9.525068792263006E-1
828 869 -6.164102546208317
829 795 -7.470528143095407
829 798 1.7037351523065354
829 806 1.4206689992882744E1
829 809 -5.434874516752154E1
829 822 -1.3100754079626967E1
829 826 -4.8056830154568795
829 829 9.462280671705366E1
829 832 -3.032691965501997
829 835 -3.176985719390615
829 867 -9.525068792263006E-1
829 870 -6.164102546208317
830 803 -8.902291313761438
830 804 -1.9613701281608755
830 807 2.099313309809002
830 823 1.1566178341284981E1
830 824 -1.892989737899262E1
830 827 -3.0326919655019684
830 830 7.913071209212863E1
830 833 -2.006315050544179E1
830 865 1.1314141660419954
830 868 2.642474144163927
830 875 -1.979467478451876E1
831 778 -8.902291313761438
831 789 1.1566178341284981E1
831 805 -1.9613701281608755
831 808 2.099313309809002
831 825 -1.892989737899262E1
831 828 -3.0326919655019684
831 831 7.913071209212863E1
831 834 -2.006315050544179E1
831 836 -1.979467478451876E1
831 866 1.1314141660419954
831 869 2.642474144163927
832 779 -8.902291313761438
832 790 1.1566178341284981E1
832 806 -1.9613701281608755
832 809 2.099313309809002
832 826 -1.892989737899262E1
832 829 -3.0326919655019684
832 832 7.913071209212863E1
832 835 -2.006315050544179E1
832 837 -1.979467478451876E1
832 867 1.1314141660419954
832 870 2.642474144163927
833 793 -6.147728663342253
833 796 2.0131166965355796
833 803 2.946987207898833E1
833 804 -1.8075395287916564E1
833 811 -3.0278000442872006
833 820 -4.9958609302768764E-1
833 823 -5.3411845761337835
833 824 1.3460688658267728E-1
833 827 -3.176985719390558
833 830 -2.006315050544134E1
833 833 9.003297197299887E1
834 778 2.946987207898833E1
834 789 -5.3411845761337835
834 794 -6.147728663342253
834 797 2.0131166965355796
834 805 -1.8075395287916564E1
834 812 -3.0278000442872006
834 821 -4.9958609302768764E-1
834 825 1.3460688658267728E-1
834 828 -3.176985719390558
834 831 -2.006315050544134E1
834 834 9.003297197299887E1
835 779 2.946987207898833E1
835 790 -5.3411845761337835
835 795 -6.147728663342253
835 798 2.0131166965355796
835 806 -1.8075395287916564E1
835 813 -3.0278000442872006
835 822 -4.9958609302768764E-1
835 826 1.3460688658267728E-1
835 829 -3.176985719390558
835 832 -2.006315050544134E1
835 835 9.003297197299887E1
836 736 -2.963882744148949E1
836 748 -1.862427555195751
836 755 -7.406767259232341
836 772 5.493674610043438
836 778 2.209071754344677
836 789 -1.0042609889176406
836 825 1.2949204586420962
836 831 -1.979467478451842E1
836 836 3.359064749978672E2
836 838 -1.8006427959090468E2
836 866 -7.580371554623466
836 879 2.3083673003744252E1
836 885 -3.490713730817042
836 890 -2.8097397039761418E1
836 909 -2.8576247276592994
836 923 1.7317984557993493
836 926 1.5491464921124853E1
836 960 3.1595493703283765E1
837 737 -2.963882744148949E1
837 771 -1.862427555195751
837 773 5.493674610043438
837 779 2.209071754344677
837 790 -1.0042609889176406
837 791 -7.406767259232341
837 826 1.2949204586420962
837 832 -1.979467478451842E1
837 837 3.359064749978672E2
837 839 -1.8006427959090468E2
837 867 -7.580371554623466
837 880 2.3083673003744252E1
837 886 -3.490713730817042
837 891 -2.8097397039761418E1
837 910 -2.8576247276592994
837 924 1.7317984557993493
837 927 1.5491464921124853E1
837 932 3.1595493703283765E1
838 736 -5.651797729904729E1
838 755 9.520600169155351
838 789 -1.4127034729292784E-1
838 825 -2.806283709949856E1
838 836 -1.8006427959090485E2
838 838 4.2932830052647864E2
838 848 -1.2997225929506897E1
838 851 -7.247818399872072
838 857 4.902210300633587E-1
838 860 2.0240557386558176E1
838 866 -8.779739136655306E-1
838 869 -1.3321127664677532
838 879 -6.253783891352539
838 882 8.122597093256392E-1
838 899 6.430431647063237E-1
838 960 5.809413823094677E1
839 737 -5.651797729904729E1
839 790 -1.4127034729292784E-1
839 791 9.520600169155351
839 826 -2.806283709949856E1
839 837 -1.8006427959090485E2
839 839 4.2932830052647864E2
839 849 -1.2997225929506897E1
839 852 -7.247818399872072
839 858 4.902210300633587E-1
839 861 2.0240557386558176E1
839 867 -8.779739136655306E-1
839 870 -1.3321127664677532
839 880 -6.253783891352539
839 883 8.122597093256392E-1
839 900 6.430431647063237E-1
839 932 5.809413823094677E1
840 840 2.693729040011891E1
840 854 -1.2780984124969855E1
840 860 7.555113932739509
840 872 -9.389058139660609E-1
840 882 -1.423542250115614E1
840 896 1.7625814523666037
840 940 -9.633881977037442
840 949 -3.7023454576708383
841 841 6.461952219648101E1
841 844 1.3158972047126682
841 847 1.0995612109026476
841 850 -6.95458229464172E1
841 856 -1.1854131092530167
841 859 3.986273826369967
841 871 -5.29847186621426
842 842 6.461952219648101E1
842 845 1.3158972047126682
842 848 1.0995612109026476
842 851 -6.95458229464172E1
842 857 -1.1854131092530167
842 860 3.986273826369967
842 872 -5.29847186621426
843 843 6.461952219648101E1
843 846 1.3158972047126682
843 849 1.0995612109026476
843 852 -6.95458229464172E1
843 858 -1.1854131092530167
843 861 3.986273826369967
843 873 -5.29847186621426
844 758 2.1625003067770887
844 759 -5.729423405811438
844 766 -4.827264073521761
844 841 1.3158972047126984
844 844 4.026735541756596E1
844 847 -3.382844420265082E1
844 856 1.2107262259351401
845 625 2.1625003067770887
845 729 -4.827264073521761
845 760 -5.729423405811438
845 842 1.3158972047126984
845 845 4.026735541756596E1
845 848 -3.382844420265082E1
845 857 1.2107262259351401
846 719 2.1625003067770887
846 720 -5.729423405811438
846 730 -4.827264073521761
846 843 1.3158972047126984
846 846 4.026735541756596E1
846 849 -3.382844420265082E1
846 858 1.2107262259351401
847 754 -1.0697260408748122E1
847 759 -5.990976999455524E-1
847 766 6.447348081740997
847 841 1.099561210902605
847 844 -3.382844420265095E1
847 847 5.985180161129104E1
847 850 -1.950849332734111
847 856 -1.755053666781668
847 877 -1.2997225929506783E1
848 729 6.447348081740997
848 755 -1.0697260408748122E1
848 760 -5.990976999455524E-1
848 838 -1.2997225929506783E1
848 842 1.099561210902605
848 845 -3.382844420265095E1
848 848 5.985180161129104E1
848 851 -1.950849332734111
848 857 -1.755053666781668
849 720 -5.990976999455524E-1
849 730 6.447348081740997
849 791 -1.0697260408748122E1
849 839 -1.2997225929506783E1
849 843 1.099561210902605
849 846 -3.382844420265095E1
849 849 5.985180161129104E1
849 852 -1.950849332734111
849 858 -1.755053666781668
850 841 -6.954582294641715E1
850 847 -1.950849332734143
850 850 9.702158980943155E1
850 856 3.138989203035247
850 859 -1.1439602244140632E1
850 871 5.031446796306131
850 877 -7.247818399872058
850 898 -1.5348740680488987E1
851 838 -7.247818399872058
851 842 -6.954582294641715E1
851 848 -1.950849332734143
851 851 9.702158980943155E1
851 857 3.138989203035247
851 860 -1.1439602244140632E1
851 872 5.031446796306131
851 899 -1.5348740680488987E1
852 839 -7.247818399872058
852 843 -6.954582294641715E1
852 849 -1.950849332734143
852 852 9.702158980943155E1
852 858 3.138989203035247
852 861 -1.1439602244140632E1
852 873 5.031446796306131
852 900 -1.5348740680488987E1
853 767 4.5559003098393276E1
853 853 2.819196867965652E2
853 856 3.8324602499671823
853 859 -2.7982389119390877E1
853 881 7.52484758189579
853 887 -1.2780984124969741E1
853 939 -4.262286564192177E-1
853 948 9.762707828915964
853 951 -2.7444371229594392E1
853 954 -5.286388649666415E1
853 959 -9.524352571597552
854 736 4.5559003098393276E1
854 840 -1.2780984124969741E1
854 854 2.819196867965652E2
854 857 3.8324602499671823
854 860 -2.7982389119390877E1
854 882 7.52484758189579
854 940 -4.262286564192177E-1
854 949 9.762707828915964
854 952 -2.7444371229594392E1
854 955 -5.286388649666415E1
854 960 -9.524352571597552
855 734 -5.286388649666415E1
855 737 4.5559003098393276E1
855 855 2.819196867965652E2
855 858 3.8324602499671823
855 861 -2.7982389119390877E1
855 883 7.52484758189579
855 888 -1.2780984124969741E1
855 932 -9.524352571597552
855 941 -4.262286564192177E-1
855 950 9.762707828915964
855 953 -2.7444371229594392E1
856 754 1.911643201404874E1
856 766 -3.859774387046962E1
856 767 -6.981535672896868
856 841 -1.1854131092530131
856 844 1.2107262259351401
856 847 -1.755053666783452
856 850 3.1389892030352504
856 853 3.832460249966859
856 856 1.4381084378359316E2
856 859 -2.4815290744813243E1
856 877 4.9022103006242435E-1
856 954 -2.5771781288606974E1
857 729 -3.859774387046962E1
857 736 -6.981535672896868
857 755 1.911643201404874E1
857 838 4.9022103006242435E-1
857 842 -1.1854131092530131
857 845 1.2107262259351401
857 848 -1.755053666783452
857 851 3.1389892030352504
857 854 3.832460249966859
857 857 1.4381084378359316E2
857 860 -2.4815290744813243E1
857 955 -2.5771781288606974E1
858 730 -3.859774387046962E1
858 734 -2.5771781288606974E1
858 737 -6.981535672896868
858 791 1.911643201404874E1
858 839 4.9022103006242435E-1
858 843 -1.1854131092530131
858 846 1.2107262259351401
858 849 -1.755053666783452
858 852 3.1389892030352504
858 855 3.832460249966859
858 858 1.4381084378359316E2
858 861 -2.4815290744813243E1
859 767 7.346950560981824E-1
859 841 3.986273826369967
859 850 -1.1439602244140774E1
859 853 -2.7982389119393886E1
859 856 -2.481529074481299E1
859 859 1.7462515273501964E2
859 871 -1.057111997418662E1
859 877 2.0240557386557935E1
859 881 1.1920976202155927E1
859 887 7.555113932739381
859 895 1.2186623414879172E1
859 898 6.421766425792974E-1
859 959 2.7603814793201757E1
860 736 7.346950560981824E-1
860 838 2.0240557386557935E1
860 840 7.555113932739381
860 842 3.986273826369967
860 851 -1.1439602244140774E1
860 854 -2.7982389119393886E1
860 857 -2.481529074481299E1
860 860 1.7462515273501964E2
860 872 -1.057111997418662E1
860 882 1.1920976202155927E1
860 896 1.2186623414879172E1
860 899 6.421766425792974E-1
860 960 2.7603814793201757E1
861 737 7.346950560981824E-1
861 839 2.0240557386557935E1
861 843 3.986273826369967
861 852 -1.1439602244140774E1
861 855 -2.7982389119393886E1
861 858 -2.481529074481299E1
861 861 1.7462515273501964E2
861 873 -1.057111997418662E1
861 883 1.1920976202155927E1
861 888 7.555113932739381
861 897 1.2186623414879172E1
861 900 6.421766425792974E-1
861 932 2.7603814793201757E1
862 862 3.9880196588955485E1
862 865 1.626644175777905E-1
862 874 1.0366169153227247
862 876 -2.386589875818146
862 889 -6.2338935689151835
862 892 5.706810398802986
862 906 -1.5754919430185765
862 925 -5.249041790316051
863 863 3.9880196588955485E1
863 866 1.626644175777905E-1
863 890 -6.2338935689151835
863 893 5.706810398802986
863 901 1.0366169153227247
863 907 -1.5754919430185765
863 909 -2.386589875818146
863 926 -5.249041790316051
864 864 3.9880196588955485E1
864 867 1.626644175777905E-1
864 891 -6.2338935689151835
864 894 5.706810398802986
864 902 1.0366169153227247
864 908 -1.5754919430185765
864 910 -2.386589875818146
864 927 -5.249041790316051
865 807 6.039028465888375
865 824 5.792390471360129
865 827 -9.525068792264052E-1
865 830 1.1314141660415016
865 862 1.626644175778189E-1
865 865 6.73489358042469E1
865 868 -3.034798936328673E1
865 875 -7.580371554624201
865 877 -8.77973913665572E-1
865 878 1.6199211145786878
865 884 -5.846014560979313
865 889 1.0341915289477868
865 892 -3.806290206606491E-1
866 808 6.039028465888375
866 825 5.792390471360129
866 828 -9.525068792264052E-1
866 831 1.1314141660415016
866 836 -7.580371554624201
866 838 -8.77973913665572E-1
866 863 1.626644175778189E-1
866 866 6.73489358042469E1
866 869 -3.034798936328673E1
866 879 1.6199211145786878
866 885 -5.846014560979313
866 890 1.0341915289477868
866 893 -3.806290206606491E-1
867 809 6.039028465888375
867 826 5.792390471360129
867 829 -9.525068792264052E-1
867 832 1.1314141660415016
867 837 -7.580371554624201
867 839 -8.77973913665572E-1
867 864 1.626644175778189E-1
867 867 6.73489358042469E1
867 870 -3.034798936328673E1
867 880 1.6199211145786878
867 886 -5.846014560979313
867 891 1.0341915289477868
867 894 -3.806290206606491E-1
868 820 3.966145833405335
868 824 -7.05208546014498
868 827 -6.1641025462088805
868 830 2.6424741441646376
868 865 -3.0347989363287752E1
868 868 8.392675214213295E1
868 871 -1.0797076642274117E-1
868 877 -1.332112766467739
868 878 -2.152402476577345E1
868 881 1.2014527437484446E1
868 895 -1.9625423938011863
868 898 -6.636212450052035
869 821 3.966145833405335
869 825 -7.05208546014498
869 828 -6.1641025462088805
869 831 2.6424741441646376
869 838 -1.332112766467739
869 866 -3.0347989363287752E1
869 869 8.392675214213295E1
869 872 -1.0797076642274117E-1
869 879 -2.152402476577345E1
869 882 1.2014527437484446E1
869 896 -1.9625423938011863
869 899 -6.636212450052035
870 822 3.966145833405335
870 826 -7.05208546014498
870 829 -6.1641025462088805
870 832 2.6424741441646376
870 839 -1.332112766467739
870 867 -3.0347989363287752E1
870 870 8.392675214213295E1
870 873 -1.0797076642274117E-1
870 880 -2.152402476577345E1
870 883 1.2014527437484446E1
870 897 -1.9625423938011863
870 900 -6.636212450052035
871 841 -5.298471866214277
871 850 5.031446796305975
871 859 -1.0571119974186677E1
871 868 -1.0797076642302539E-1
871 871 2.034762867198188E1
871 887 -9.389058139660751E-1
871 895 -2.995511199146956
871 898 6.400646506933514E-1
872 840 -9.389058139660751E-1
872 842 -5.298471866214277
872 851 5.031446796305975
872 860 -1.0571119974186677E1
872 869 -1.0797076642302539E-1
872 872 2.034762867198188E1
872 896 -2.995511199146956
872 899 6.400646506933514E-1
873 843 -5.298471866214277
873 852 5.031446796305975
873 861 -1.0571119974186677E1
873 870 -1.0797076642302539E-1
873 873 2.034762867198188E1
873 888 -9.389058139660751E-1
873 897 -2.995511199146956
873 900 6.400646506933514E-1
874 744 2.340422881238112
874 749 -6.092239710128553
874 765 -1.494887148026993E1
874 862 1.0366169153227816
874 874 7.319858605029142E1
874 876 -6.815284753293429E1
874 925 9.619693117792849E-1
875 747 -1.862427555195751
875 749 5.493674610043438
875 754 -7.406767259232341
875 765 1.7317984557993493
875 767 -2.963882744148949E1
875 803 2.209071754344677
875 823 -1.0042609889176406
875 824 1.2949204586420962
875 830 -1.979467478451842E1
875 865 -7.580371554623466
875 875 3.359064749978672E2
875 876 -2.8576247276592994
875 877 -1.8006427959090468E2
875 878 2.3083673003744252E1
875 884 -3.490713730817042
875 889 -2.8097397039761418E1
875 925 1.5491464921124853E1
875 959 3.1595493703283765E1
876 749 1.0430149028385209E1
876 765 3.9107605701931933
876 862 -2.386589875818089
876 874 -6.81528475329344E1
876 875 -2.857624727659413
876 876 1.0782048226420044E2
876 889 2.788794702109609
876 925 -1.0866525988372587E1
877 754 9.520600169155351
877 767 -5.651797729904729E1
877 823 -1.4127034729292784E-1
877 824 -2.806283709949856E1
877 847 -1.2997225929506897E1
877 850 -7.247818399872072
877 856 4.902210300633587E-1
877 859 2.0240557386558176E1
877 865 -8.779739136655306E-1
877 868 -1.3321127664677532
877 875 -1.8006427959090485E2
877 877 4.2932830052647864E2
877 878 -6.253783891352539
877 881 8.122597093256392E-1
877 898 6.430431647063237E-1
877 959 5.809413823094677E1
878 865 1.6199211145786878
878 868 -2.152402476577357E1
878 875 2.308367300374448E1
878 877 -6.2537838913527635
878 878 2.376838736654555E2
878 881 -3.1899568087954833E1
878 884 -1.394067859824413E2
878 914 -2.6438968380196384
878 933 -5.436689109308291
878 959 -4.411042557125938
879 836 2.308367300374448E1
879 838 -6.2537838913527635
879 866 1.6199211145786878
879 869 -2.152402476577357E1
879 879 2.376838736654555E2
879 882 -3.1899568087954833E1
879 885 -1.394067859824413E2
879 915 -2.6438968380196384
879 934 -5.436689109308291
879 960 -4.411042557125938
880 837 2.308367300374448E1
880 839 -6.2537838913527635
880 867 1.6199211145786878
880 870 -2.152402476577357E1
880 880 2.376838736654555E2
880 883 -3.1899568087954833E1
880 886 -1.394067859824413E2
880 916 -2.6438968380196384
880 932 -4.411042557125938
880 935 -5.436689109308291
881 853 7.524847581895743
881 859 1.1920976202155941E1
881 868 1.2014527437485356E1
881 877 8.122597093255264E-1
881 878 -3.1899568087954748E1
881 881 1.2161336118599286E2
881 887 -1.4235422501155927E1
881 895 -1.3560484165753655E1
881 898 3.064310161089338
881 933 9.133173013035123
881 939 3.0206390653101876
881 959 -1.0042141612108304E1
882 838 8.122597093255264E-1
882 840 -1.4235422501155927E1
882 854 7.524847581895743
882 860 1.1920976202155941E1
882 869 1.2014527437485356E1
882 879 -3.1899568087954748E1
882 882 1.2161336118599286E2
882 896 -1.3560484165753655E1
882 899 3.064310161089338
882 934 9.133173013035123
882 940 3.0206390653101876
882 960 -1.0042141612108304E1
883 839 8.122597093255264E-1
883 855 7.524847581895743
883 861 1.1920976202155941E1
883 870 1.2014527437485356E1
883 880 -3.1899568087954748E1
883 883 1.2161336118599286E2
883 888 -1.4235422501155927E1
883 897 -1.3560484165753655E1
883 900 3.064310161089338
883 932 -1.0042141612108304E1
883 935 9.133173013035123
883 941 3.0206390653101876
884 865 -5.846014560978347
884 875 -3.490713730817113
884 878 -1.3940678598244085E2
884 884 2.725940759471704E2
884 889 9.066122412460004
884 892 -2.250596312922383E1
884 906 1.9136502357320012E1
884 914 3.9934982995417805
884 920 1.2882348805026012E1
884 925 -5.955294766763709E1
884 959 -7.013143533788255E1
885 836 -3.490713730817113
885 866 -5.846014560978347
885 879 -1.3940678598244085E2
885 885 2.725940759471704E2
885 890 9.066122412460004
885 893 -2.250596312922383E1
885 907 1.9136502357320012E1
885 915 3.9934982995417805
885 921 1.2882348805026012E1
885 926 -5.955294766763709E1
885 960 -7.013143533788255E1
886 837 -3.490713730817113
886 867 -5.846014560978347
886 880 -1.3940678598244085E2
886 886 2.725940759471704E2
886 891 9.066122412460004
886 894 -2.250596312922383E1
886 908 1.9136502357320012E1
886 916 3.9934982995417805
886 922 1.2882348805026012E1
886 927 -5.955294766763709E1
886 932 -7.013143533788255E1
887 853 -1.2780984124969855E1
887 859 7.555113932739509
887 871 -9.389058139660609E-1
887 881 -1.423542250115614E1
887 887 2.693729040011891E1
887 895 1.7625814523666037
887 939 -9.633881977037442
887 948 -3.7023454576708383
888 855 -1.2780984124969855E1
888 861 7.555113932739509
888 873 -9.389058139660609E-1
888 883 -1.423542250115614E1
888 888 2.693729040011891E1
888 897 1.7625814523666037
888 941 -9.633881977037442
888 950 -3.7023454576708383
889 862 -6.233893568915439
889 865 1.0341915289478578
889 875 -2.8097397039761383E1
889 876 2.7887947021092963
889 884 9.066122412460004
889 889 1.0634199454262895E2
889 892 -8.474651436415996
889 925 -1.1314316865606358E1
890 836 -2.8097397039761383E1
890 863 -6.233893568915439
890 866 1.0341915289478578
890 885 9.066122412460004
890 890 1.0634199454262895E2
890 893 -8.474651436415996
890 909 2.7887947021092963
890 926 -1.1314316865606358E1
891 837 -2.8097397039761383E1
891 864 -6.233893568915439
891 867 1.0341915289478578
891 886 9.066122412460004
891 891 1.0634199454262895E2
891 894 -8.474651436415996
891 910 2.7887947021092963
891 927 -1.1314316865606358E1
892 862 5.706810398802077
892 865 -3.806290206606491E-1
892 884 -2.2505963129223147E1
892 889 -8.474651436416224
892 892 7.079623246984579E1
892 906 -5.229159221359442
892 925 -1.2713270625860638E1
893 863 5.706810398802077
893 866 -3.806290206606491E-1
893 885 -2.2505963129223147E1
893 890 -8.474651436416224
893 893 7.079623246984579E1
893 907 -5.229159221359442
893 926 -1.2713270625860638E1
894 864 5.706810398802077
894 867 -3.806290206606491E-1
894 886 -2.2505963129223147E1
894 891 -8.474651436416224
894 894 7.079623246984579E1
894 908 -5.229159221359442
894 927 -1.2713270625860638E1
895 859 1.2186623414879186E1
895 868 -1.9625423938011863
895 871 -2.9955111991471193
895 881 -1.3560484165753097E1
895 887 1.762581452367609
895 895 4.8542702778930895E1
895 898 3.2027948367419605
896 840 1.762581452367609
896 860 1.2186623414879186E1
896 869 -1.9625423938011863
896 872 -2.9955111991471193
896 882 -1.3560484165753097E1
896 896 4.8542702778930895E1
896 899 3.2027948367419605
897 861 1.2186623414879186E1
897 870 -1.9625423938011863
897 873 -2.9955111991471193
897 883 -1.3560484165753097E1
897 888 1.762581452367609
897 897 4.8542702778930895E1
897 900 3.2027948367419605
898 850 -1.5348740680488945E1
898 859 6.421766425787006E-1
898 868 -6.6362124500519215
898 871 6.400646506930032E-1
898 877 6.430431647065618E-1
898 881 3.0643101610888834
898 895 3.2027948367413566
898 898 7.523839913630223E1
899 838 6.430431647065618E-1
899 851 -1.5348740680488945E1
899 860 6.421766425787006E-1
899 869 -6.6362124500519215
899 872 6.400646506930032E-1
899 882 3.0643101610888834
899 896 3.2027948367413566
899 899 7.523839913630223E1
900 839 6.430431647065618E-1
900 852 -1.5348740680488945E1
900 861 6.421766425787006E-1
900 870 -6.6362124500519215
900 873 6.400646506930032E-1
900 883 3.0643101610888834
900 897 3.2027948367413566
900 900 7.523839913630223E1
901 768 2.340422881238112
901 772 -6.092239710128553
901 863 1.0366169153227816
901 901 7.319858605029142E1
901 909 -6.815284753293429E1
901 923 -1.494887148026993E1
901 926 9.619693117792849E-1
902 769 2.340422881238112
902 773 -6.092239710128553
902 864 1.0366169153227816
902 902 7.319858605029142E1
902 910 -6.815284753293429E1
902 924 -1.494887148026993E1
902 927 9.619693117792849E-1
903 82 -9.353718731453995E-1
903 903 1.6579115130137808E1
903 906 -2.030338630167911
903 911 -1.343245303886718
903 914 -5.0865259586387594
903 917 -2.9302863224065305
903 920 -7.40124518435838
904 83 -9.353718731453995E-1
904 904 1.6579115130137808E1
904 907 -2.030338630167911
904 912 -1.343245303886718
904 915 -5.0865259586387594
904 918 -2.9302863224065305
904 921 -7.40124518435838
905 84 -9.353718731453995E-1
905 905 1.6579115130137808E1
905 908 -2.030338630167911
905 913 -1.343245303886718
905 916 -5.0865259586387594
905 919 -2.9302863224065305
905 922 -7.40124518435838
906 862 -1.5754919430189176
906 884 1.9136502357319955E1
906 892 -5.229159221359698
906 903 -2.030338630167485
906 906 1.503060660154675E1
906 914 -3.946845107344359E-1
906 920 -2.3504231139024014
906 925 4.983341360449263
907 863 -1.5754919430189176
907 885 1.9136502357319955E1
907 893 -5.229159221359698
907 904 -2.030338630167485
907 907 1.503060660154675E1
907 915 -3.946845107344359E-1
907 921 -2.3504231139024014
907 926 4.983341360449263
908 864 -1.5754919430189176
908 886 1.9136502357319955E1
908 894 -5.229159221359698
908 905 -2.030338630167485
908 908 1.503060660154675E1
908 916 -3.946845107344359E-1
908 922 -2.3504231139024014
908 927 4.983341360449263
909 772 1.0430149028385209E1
909 836 -2.857624727659413
909 863 -2.386589875818089
909 890 2.788794702109609
909 901 -6.81528475329344E1
909 909 1.0782048226420044E2
909 923 3.9107605701931933
909 926 -1.0866525988372587E1
910 773 1.0430149028385209E1
910 837 -2.857624727659413
910 864 -2.386589875818089
910 891 2.788794702109609
910 902 -6.81528475329344E1
910 910 1.0782048226420044E2
910 924 3.9107605701931933
910 927 -1.0866525988372587E1
911 82 -2.5930493638318296E1
911 91 -4.877759559627222
911 97 1.4554767997341688E1
911 903 -1.3432453038867322
911 911 1.544544640227402E2
911 914 -6.53941326663621
911 917 -4.65099810858153E-1
911 928 -2.7231920294270537
911 931 -2.7015437091942275E1
911 936 -1.3998243834016144E1
911 959 -1.0735437073093323E1
912 83 -2.5930493638318296E1
912 92 -4.877759559627222
912 98 1.4554767997341688E1
912 108 -2.7015437091942275E1
912 904 -1.3432453038867322
912 912 1.544544640227402E2
912 915 -6.53941326663621
912 918 -4.65099810858153E-1
912 929 -2.7231920294270537
912 937 -1.3998243834016144E1
912 960 -1.0735437073093323E1
913 68 -2.7015437091942275E1
913 84 -2.5930493638318296E1
913 93 -4.877759559627222
913 99 1.4554767997341688E1
913 905 -1.3432453038867322
913 913 1.544544640227402E2
913 916 -6.53941326663621
913 919 -4.65099810858153E-1
913 930 -2.7231920294270537
913 932 -1.0735437073093323E1
913 938 -1.3998243834016144E1
914 878 -2.643896838019583
914 884 3.9934982995409847
914 903 -5.086525958638674
914 906 -3.94684510734443E-1
914 911 -6.539413266636778
914 914 2.1699276643494656E2
914 917 -1.1628416524256586
914 920 3.209876187851964E1
914 928 -3.021150495488092
914 933 -2.4751588109873893E1
914 959 -1.4515577062286527
915 879 -2.643896838019583
915 885 3.9934982995409847
915 904 -5.086525958638674
915 907 -3.94684510734443E-1
915 912 -6.539413266636778
915 915 2.1699276643494656E2
915 918 -1.1628416524256586
915 921 3.209876187851964E1
915 929 -3.021150495488092
915 934 -2.4751588109873893E1
915 960 -1.4515577062286527
916 880 -2.643896838019583
916 886 3.9934982995409847
916 905 -5.086525958638674
916 908 -3.94684510734443E-1
916 913 -6.539413266636778
916 916 2.1699276643494656E2
916 919 -1.1628416524256586
916 922 3.209876187851964E1
916 930 -3.021150495488092
916 932 -1.4515577062286527
916 935 -2.4751588109873893E1
917 39 -1.2586610911383723E1
917 82 -2.730619869390569
917 97 -2.4317330058449812E1
917 725 2.419351366484097
917 903 -2.9302863224065927
917 911 -4.6509981086120833E-1
917 914 -1.1628416524258576
917 917 1.878129930750684E2
917 920 -3.2124795559380956
917 928 5.770119525560219
917 931 4.410723337383827E1
917 959 -6.369830695031127E1
918 40 -1.2586610911383723E1
918 83 -2.730619869390569
918 98 -2.4317330058449812E1
918 108 4.410723337383827E1
918 726 2.419351366484097
918 904 -2.9302863224065927
918 912 -4.6509981086120833E-1
918 915 -1.1628416524258576
918 918 1.878129930750684E2
918 921 -3.2124795559380956
918 929 5.770119525560219
918 960 -6.369830695031127E1
919 41 -1.2586610911383723E1
919 68 4.410723337383827E1
919 84 -2.730619869390569
919 99 -2.4317330058449812E1
919 727 2.419351366484097
919 905 -2.9302863224065927
919 913 -4.6509981086120833E-1
919 916 -1.1628416524258576
919 919 1.878129930750684E2
919 922 -3.2124795559380956
919 930 5.770119525560219
919 932 -6.369830695031127E1
920 725 8.195784638456132
920 765 1.2345824177487344E1
920 767 2.249264256751246
920 884 1.2882348805026282E1
920 903 -7.401245184358096
920 906 -2.350423113902366
920 914 3.209876187851925E1
920 917 -3.212479555939005
920 920 1.6711257959480088E2
920 925 -2.0288689052939347E1
920 959 -2.4060867256420124E1
921 726 8.195784638456132
921 736 2.249264256751246
921 885 1.2882348805026282E1
921 904 -7.401245184358096
921 907 -2.350423113902366
921 915 3.209876187851925E1
921 918 -3.212479555939005
921 921 1.6711257959480088E2
921 923 1.2345824177487344E1
921 926 -2.0288689052939347E1
921 960 -2.4060867256420124E1
922 727 8.195784638456132
922 737 2.249264256751246
922 886 1.2882348805026282E1
922 905 -7.401245184358096
922 908 -2.350423113902366
922 916 3.209876187851925E1
922 919 -3.212479555939005
922 922 1.6711257959480088E2
922 924 1.2345824177487344E1
922 927 -2.0288689052939347E1
922 932 -2.4060867256420124E1
923 721 -2.4018882410715054
923 726 1.8712114925322556
923 736 -1.91671367170631E1
923 748 -2.250515169659678E1
923 768 5.156729670765117E-1
923 772 -2.1740881500518697E1
923 836 1.7317984557966077
923 901 -1.4948871480269986E1
923 909 3.910760570194052
923 921 1.2345824177487572E1
923 923 1.2034357189639368E2
923 926 -5.729430690010815
924 727 1.8712114925322556
924 737 -1.91671367170631E1
924 762 -2.4018882410715054
924 769 5.156729670765117E-1
924 771 -2.250515169659678E1
924 773 -2.1740881500518697E1
924 837 1.7317984557966077
924 902 -1.4948871480269986E1
924 910 3.910760570194052
924 922 1.2345824177487572E1
924 924 1.2034357189639368E2
924 927 -5.729430690010815
925 765 -5.729430690012123
925 767 -2.5228838305866248E1
925 862 -5.249041790315596
925 874 9.619693117795123E-1
925 875 1.549146492112491E1
925 876 -1.0866525988372587E1
925 884 -5.955294766763729E1
925 889 -1.1314316865605903E1
925 892 -1.2713270625860467E1
925 906 4.983341360449444
925 920 -2.028868905293662E1
925 925 2.4781374990888742E2
925 959 9.25594207398988E1
926 736 -2.5228838305866248E1
926 836 1.549146492112491E1
926 863 -5.249041790315596
926 885 -5.955294766763729E1
926 890 -1.1314316865605903E1
926 893 -1.2713270625860467E1
926 901 9.619693117795123E-1
926 907 4.983341360449444
926 909 -1.0866525988372587E1
926 921 -2.028868905293662E1
926 923 -5.729430690012123
926 926 2.4781374990888742E2
926 960 9.25594207398988E1
927 737 -2.5228838305866248E1
927 837 1.549146492112491E1
927 864 -5.249041790315596
927 886 -5.955294766763729E1
927 891 -1.1314316865605903E1
927 894 -1.2713270625860467E1
927 902 9.619693117795123E-1
927 908 4.983341360449444
927 910 -1.0866525988372587E1
927 922 -2.028868905293662E1
927 924 -5.729430690012123
927 927 2.4781374990888742E2
927 932 9.25594207398988E1
928 911 -2.7231920294237852
928 914 -3.021150495487654
928 917 5.770119525558428
928 928 5.780725000162615E1
928 933 -1.6925317745614702E1
928 936 -2.5676473229785044
928 959 5.602054233176867
929 912 -2.7231920294237852
929 915 -3.021150495487654
929 918 5.770119525558428
929 929 5.780725000162615E1
929 934 -1.6925317745614702E1
929 937 -2.5676473229785044
929 960 5.602054233176867
930 913 -2.7231920294237852
930 916 -3.021150495487654
930 919 5.770119525558428
930 930 5.780725000162615E1
930 932 5.602054233176867
930 935 -1.6925317745614702E1
930 938 -2.5676473229785044
931 52 -3.0409994906038044E1
931 72 -5.97735339901869E1
931 91 4.636614576597907
931 97 -1.1189567579852522
931 106 1.8029460318240943E1
931 110 -3.2136613520529785E1
931 911 -2.7015437091943284E1
931 917 4.410723337383827E1
931 931 2.132204128071367E2
931 936 -2.267440179592028E1
931 959 -2.2747892867052173E1
932 18 -7.134889694436384E1
932 23 5.065159524301877E1
932 41 -6.454302844590626E1
932 68 -2.2747892867052204E1
932 73 5.917291719560669E1
932 74 5.606480566807907E1
932 99 2.6906801063220236E1
932 727 4.487110808933494E1
932 728 -2.239320697938979
932 734 -5.980848661005104E1
932 735 8.106716593620754E1
932 737 -9.589331204092056E1
932 837 3.1595493703284966E1
932 839 5.809413823094696E1
932 855 -9.524352571597452
932 861 2.760381479320168E1
932 880 -4.411042557125759
932 883 -1.0042141612108617E1
932 886 -7.013143533788296E1
932 913 -1.0735437073092896E1
932 916 -1.4515577062285745
932 919 -6.3698306950310865E1
932 922 -2.4060867256420778E1
932 927 9.25594207398986E1
932 930 5.60205423317735
932 932 6.69397474326416E2
932 935 -6.871879840762336
932 938 3.0262665595943602E1
932 941 -5.382604255106742
932 953 1.5063591012255724E1
933 878 -5.436689109308207
933 881 9.133173013035284
933 914 -2.4751588109873666E1
933 928 -1.69253177456145E1
933 933 9.747027067072037E1
933 936 1.8162784884356164E1
933 939 -7.66709347402442E1
933 959 -6.871879840762372
934 879 -5.436689109308207
934 882 9.133173013035284
934 915 -2.4751588109873666E1
934 929 -1.69253177456145E1
934 934 9.747027067072037E1
934 937 1.8162784884356164E1
934 940 -7.66709347402442E1
934 960 -6.871879840762372
935 880 -5.436689109308207
935 883 9.133173013035284
935 916 -2.4751588109873666E1
935 930 -1.69253177456145E1
935 932 -6.871879840762372
935 935 9.747027067072037E1
935 938 1.8162784884356164E1
935 941 -7.66709347402442E1
936 52 -3.1611927749205653
936 72 1.5763118555674371E1
936 911 -1.3998243834015803E1
936 928 -2.5676473229771855
936 931 -2.267440179591927E1
936 933 1.8162784884356235E1
936 936 2.4241608827590443E2
936 939 -2.2603144772556206E1
936 942 -7.015106508894367E1
936 951 -3.732097997939194E1
936 959 3.026266559594366E1
937 53 -3.1611927749205653
937 108 -2.267440179591927E1
937 912 -1.3998243834015803E1
937 929 -2.5676473229771855
937 934 1.8162784884356235E1
937 937 2.4241608827590443E2
937 940 -2.2603144772556206E1
937 943 -7.015106508894367E1
937 952 -3.732097997939194E1
937 956 1.5763118555674371E1
937 960 3.026266559594366E1
938 54 -3.1611927749205653
938 68 -2.267440179591927E1
938 73 1.5763118555674371E1
938 913 -1.3998243834015803E1
938 930 -2.5676473229771855
938 932 3.026266559594366E1
938 935 1.8162784884356235E1
938 938 2.4241608827590443E2
938 941 -2.2603144772556206E1
938 944 -7.015106508894367E1
938 953 -3.732097997939194E1
939 853 -4.262286564188056E-1
939 881 3.020639065311154
939 887 -9.633881977037428
939 933 -7.667093474024392E1
939 936 -2.260314477255715E1
939 939 1.6076385636804687E2
939 942 -3.77065873643578
939 948 -1.7926882010038206E1
939 951 -8.451109926143978
939 959 -5.3826042551070685
940 840 -9.633881977037428
940 854 -4.262286564188056E-1
940 882 3.020639065311154
940 934 -7.667093474024392E1
940 937 -2.260314477255715E1
940 940 1.6076385636804687E2
940 943 -3.77065873643578
940 949 -1.7926882010038206E1
940 952 -8.451109926143978
940 960 -5.3826042551070685
941 855 -4.262286564188056E-1
941 883 3.020639065311154
941 888 -9.633881977037428
941 932 -5.3826042551070685
941 935 -7.667093474024392E1
941 938 -2.260314477255715E1
941 941 1.6076385636804687E2
941 944 -3.77065873643578
941 950 -1.7926882010038206E1
941 953 -8.451109926143978
942 52 9.247020380466452
942 58 4.521010193137007
942 72 5.1850565234157955
942 936 -7.01510650889436E1
942 939 -3.770658736435591
942 942 1.0115303478466573E2
942 945 -2.9874295861493913E1
942 948 -8.688009852415085
942 951 -7.5044889848170095
943 53 9.247020380466452
943 59 4.521010193137007
943 937 -7.01510650889436E1
943 940 -3.770658736435591
943 943 1.0115303478466573E2
943 946 -2.9874295861493913E1
943 949 -8.688009852415085
943 952 -7.5044889848170095
943 956 5.1850565234157955
944 54 9.247020380466452
944 60 4.521010193137007
944 73 5.1850565234157955
944 938 -7.01510650889436E1
944 941 -3.770658736435591
944 944 1.0115303478466573E2
944 947 -2.9874295861493913E1
944 950 -8.688009852415085
944 953 -7.5044889848170095
945 58 -1.9436384180492123E1
945 64 3.9911470124392623
945 72 -5.544426106661122
945 942 -2.9874295861494012E1
945 945 5.223804194436411E1
945 948 -1.7160333247478838
945 951 2.4875330872296303E1
946 59 -1.9436384180492123E1
946 65 3.9911470124392623
946 943 -2.9874295861494012E1
946 946 5.223804194436411E1
946 949 -1.7160333247478838
946 952 2.4875330872296303E1
946 956 -5.544426106661122
947 60 -1.9436384180492123E1
947 66 3.9911470124392623
947 73 -5.544426106661122
947 944 -2.9874295861494012E1
947 947 5.223804194436411E1
947 950 -1.7160333247478838
947 953 2.4875330872296303E1
948 853 9.762707828915904
948 887 -3.7023454576707566
948 939 -1.7926882010038234E1
948 942 -8.688009852415032
948 945 -1.716033324748026
948 948 7.17044604744583E1
948 951 -2.460825092158234E1
949 840 -3.7023454576707566
949 854 9.762707828915904
949 940 -1.7926882010038234E1
949 943 -8.688009852415032
949 946 -1.716033324748026
949 949 7.17044604744583E1
949 952 -2.460825092158234E1
950 855 9.762707828915904
950 888 -3.7023454576707566
950 941 -1.7926882010038234E1
950 944 -8.688009852415032
950 947 -1.716033324748026
950 950 7.17044604744583E1
950 953 -2.460825092158234E1
951 17 -1.7197571893674972E1
951 72 -2.029386267792704
951 853 -2.7444371229596882E1
951 936 -3.732097997939206E1
951 939 -8.451109926143992
951 942 -7.50448898481686
951 945 2.487533087229629E1
951 948 -2.4608250921582446E1
951 951 2.5536789327609077E2
951 954 1.883803931813274E1
951 959 1.5063591012255724E1
952 47 -1.7197571893674972E1
952 854 -2.7444371229596882E1
952 937 -3.732097997939206E1
952 940 -8.451109926143992
952 943 -7.50448898481686
952 946 2.487533087229629E1
952 949 -2.4608250921582446E1
952 952 2.5536789327609077E2
952 955 1.883803931813274E1
952 956 -2.029386267792704
952 960 1.5063591012255724E1
953 18 -1.7197571893674972E1
953 73 -2.029386267792704
953 734 1.883803931813274E1
953 855 -2.7444371229596882E1
953 932 1.5063591012255724E1
953 938 -3.732097997939206E1
953 941 -8.451109926143992
953 944 -7.50448898481686
953 947 2.487533087229629E1
953 950 -2.4608250921582446E1
953 953 2.5536789327609077E2
954 17 -2.1853382234662138
954 22 3.8508743880461713
954 731 -2.174641658135854E1
954 738 2.1284119045322576E1
954 766 9.922280179610375
954 767 -2.041246654876693E1
954 853 -5.286388649666452E1
954 856 -2.5771781288607755E1
954 951 1.8838039318132626E1
954 954 3.3789159036929E2
954 957 -1.4432524501807984E2
954 959 -5.980848661005182E1
955 47 -2.1853382234662138
955 48 3.8508743880461713
955 729 9.922280179610375
955 732 -2.174641658135854E1
955 736 -2.041246654876693E1
955 739 2.1284119045322576E1
955 854 -5.286388649666452E1
955 857 -2.5771781288607755E1
955 952 1.8838039318132626E1
955 955 3.3789159036929E2
955 958 -1.4432524501807984E2
955 960 -5.980848661005182E1
956 46 -4.460645713668039E1
956 47 6.212648244990506
956 53 -1.634447122144246E1
956 56 2.948175619288696E1
956 59 -1.851736664352771E1
956 62 -9.43217757980257E-1
956 65 -8.589124589817313
956 70 -8.122312412084256
956 108 -5.977353399018578E1
956 111 5.338984920452147E1
956 937 1.5763118555674028E1
956 943 5.185056523415569
956 946 -5.5444261066611364
956 952 -2.029386267790999
956 956 3.6562701790062584E2
956 960 5.9172917195606736E1
957 12 -6.643149434910915
957 17 7.398585346880104
957 19 -2.331401972202096E1
957 22 -5.1537871165852344E1
957 731 -2.522797938509014E1
957 738 6.1057634731713414E1
957 954 -1.4432524501808348E2
957 957 3.472804417989386E2
957 959 8.106716593620638E1
958 13 -6.643149434910915
958 20 -2.331401972202096E1
958 47 7.398585346880104
958 48 -5.1537871165852344E1
958 732 -2.522797938509014E1
958 739 6.1057634731713414E1
958 955 -1.4432524501808348E2
958 958 3.472804417989386E2
958 960 8.106716593620638E1
959 17 -7.134889694436384E1
959 22 5.065159524301877E1
959 39 -6.454302844590626E1
959 44 -2.239320697938979
959 72 5.917291719560669E1
959 97 2.6906801063220236E1
959 110 5.606480566807907E1
959 725 4.487110808933494E1
959 767 -9.589331204092056E1
959 853 -9.524352571597452
959 859 2.760381479320168E1
959 875 3.1595493703284966E1
959 877 5.809413823094696E1
959 878 -4.411042557125759
959 881 -1.0042141612108617E1
959 884 -7.013143533788296E1
959 911 -1.0735437073092896E1
959 914 -1.4515577062285745
959 917 -6.3698306950310865E1
959 920 -2.4060867256420778E1
959 925 9.25594207398986E1
959 928 5.60205423317735
959 931 -2.2747892867052204E1
959 933 -6.871879840762336
959 936 3.0262665595943602E1
959 939 -5.382604255106742
959 951 1.5063591012255724E1
959 954 -5.980848661005104E1
959 957 8.106716593620754E1
959 959 6.69397474326416E2
960 40 -6.454302844590626E1
960 45 -2.239320697938979
960 47 -7.134889694436384E1
960 48 5.065159524301877E1
960 98 2.6906801063220236E1
960 108 -2.2747892867052204E1
960 111 5.606480566807907E1
960 726 4.487110808933494E1
960 736 -9.589331204092056E1
960 836 3.1595493703284966E1
960 838 5.809413823094696E1
960 854 -9.524352571597452
960 860 2.760381479320168E1
960 879 -4.411042557125759
960 882 -1.0042141612108617E1
960 885 -7.013143533788296E1
960 912 -1.0735437073092896E1
960 915 -1.4515577062285745
960 918 -6.3698306950310865E1
960 921 -2.4060867256420778E1
960 926 9.25594207398986E1
960 929 5.60205423317735
960 934 -6.871879840762336
960 937 3.0262665595943602E1
960 940 -5.382604255106742
960 952 1.5063591012255724E1
960 955 -5.980848661005104E1
960 956 5.917291719560669E1
960 958 8.106716593620754E1
960 960 6.69397474326416E2
