%%MatrixMarket matrix coordinate real general
%Reordered M matrix using quantum partitioning with k=16
960 960 10098
1 1 8.471446887765963E1
1 3 2.9353994666548147
1 20 -6.067789479100759E1
1 22 2.458957617008423
1 32 -2.2552926273550113E1
1 121 5.011791789341686
1 148 7.909210272331649
2 2 8.471446887765963E1
2 5 2.9353994666548147
2 21 -6.067789479100759E1
2 24 2.458957617008423
2 34 -2.2552926273550113E1
2 123 5.011791789341686
2 150 7.909210272331649
3 1 2.935399466654644
3 3 4.000573580462586E1
3 6 4.05775108586127
3 22 -6.738768734137011
3 25 -3.8309900262902374
3 32 -5.383297041252499E-1
3 35 -7.539157196784163
4 4 4.000573580462586E1
4 7 4.05775108586127
4 23 -6.738768734137011
4 26 -3.8309900262902374
4 33 -5.383297041252499E-1
4 36 -7.539157196784163
4 124 2.935399466654644
5 2 2.935399466654644
5 5 4.000573580462586E1
5 8 4.05775108586127
5 24 -6.738768734137011
5 27 -3.8309900262902374
5 34 -5.383297041252499E-1
5 37 -7.539157196784163
6 3 4.0577510858606445
6 6 4.1021036078076804E1
6 25 -7.5094648303650615
6 28 -1.6557042853455584E1
6 35 -5.763573077200618
6 696 2.8087618549785276
6 735 9.271768779674062
7 4 4.0577510858606445
7 7 4.1021036078076804E1
7 26 -7.5094648303650615
7 29 -1.6557042853455584E1
7 36 -5.763573077200618
7 697 2.8087618549785276
7 736 9.271768779674062
8 5 4.0577510858606445
8 8 4.1021036078076804E1
8 27 -7.5094648303650615
8 30 -1.6557042853455584E1
8 37 -5.763573077200618
8 698 2.8087618549785276
8 737 9.271768779674062
9 9 2.0765783662384615E2
9 11 -8.018387206762329
9 20 -1.3300937252653694E2
9 22 -7.14402732157633
9 32 -8.46355102099804
9 40 -2.273843479819864E1
9 125 1.015687529333512
9 148 -2.256673668170143E1
9 154 -9.585958418219116
9 221 1.2683752199821466E1
10 10 2.0765783662384615E2
10 13 -8.018387206762329
10 21 -1.3300937252653694E2
10 24 -7.14402732157633
10 34 -8.46355102099804
10 42 -2.273843479819864E1
10 127 1.015687529333512
10 150 -2.256673668170143E1
10 156 -9.585958418219116
10 223 1.2683752199821466E1
11 9 -8.0183872067636
11 11 2.644481749058864E2
11 14 8.65280640016907
11 22 -1.6003769804378544E2
11 25 -1.572945260831597E1
11 32 -7.767960117379987E-1
11 35 4.856173447467931
11 40 -1.1934235838781042E1
11 43 -5.9033082308340425E1
11 221 1.5795533700008079E1
12 12 2.644481749058864E2
12 15 8.65280640016907
12 23 -1.6003769804378544E2
12 26 -1.572945260831597E1
12 33 -7.767960117379987E-1
12 36 4.856173447467931
12 41 -1.1934235838781042E1
12 44 -5.9033082308340425E1
12 128 -8.0183872067636
12 222 1.5795533700008079E1
13 10 -8.0183872067636
13 13 2.644481749058864E2
13 16 8.65280640016907
13 24 -1.6003769804378544E2
13 27 -1.572945260831597E1
13 34 -7.767960117379987E-1
13 37 4.856173447467931
13 42 -1.1934235838781042E1
13 45 -5.9033082308340425E1
13 223 1.5795533700008079E1
14 11 8.652806400169661
14 14 1.2450064301805408E2
14 17 1.6623208535607823E1
14 25 -5.2963517269422255E1
14 28 -2.0369346734910142E1
14 35 2.1496453531933923E-1
14 43 -3.377252090573505E1
14 84 7.09223483033098
14 109 -5.097279407748836E-1
15 12 8.652806400169661
15 15 1.2450064301805408E2
15 18 1.6623208535607823E1
15 26 -5.2963517269422255E1
15 29 -2.0369346734910142E1
15 36 2.1496453531933923E-1
15 44 -3.377252090573505E1
15 46 7.09223483033098
15 48 -5.097279407748836E-1
16 13 8.652806400169661
16 16 1.2450064301805408E2
16 19 1.6623208535607823E1
16 27 -5.2963517269422255E1
16 30 -2.0369346734910142E1
16 37 2.1496453531933923E-1
16 45 -3.377252090573505E1
16 47 7.09223483033098
16 110 -5.097279407748836E-1
17 14 1.662320853560805E1
17 17 1.277761272852566E2
17 28 -8.801635605458125E1
17 38 -2.814945813559862E1
17 60 6.077460452409262E-1
17 84 -1.0489392821589561E1
17 109 -1.6942376372084595E1
17 709 -3.2237855021883526
17 714 -5.686477259494988
17 756 2.8380924832830488
18 15 1.662320853560805E1
18 18 1.277761272852566E2
18 29 -8.801635605458125E1
18 31 6.077460452409262E-1
18 39 -2.814945813559862E1
18 46 -1.0489392821589561E1
18 48 -1.6942376372084595E1
18 710 -3.2237855021883526
18 715 -5.686477259494988
18 757 2.8380924832830488
19 16 1.662320853560805E1
19 19 1.277761272852566E2
19 30 -8.801635605458125E1
19 47 -1.0489392821589561E1
19 110 -1.6942376372084595E1
19 711 -3.2237855021883526
19 716 -5.686477259494988
19 729 6.077460452409262E-1
19 744 -2.814945813559862E1
19 758 2.8380924832830488
20 1 -6.067789479100804E1
20 9 -1.330093725265392E2
20 20 2.0849610402564986E2
20 22 2.1583331563535135
20 32 1.2043013594666942E1
20 121 -7.316333588908492
20 125 -5.092203610876275
20 129 2.551907722247222
20 148 -2.4366697263934327
21 2 -6.067789479100804E1
21 10 -1.330093725265392E2
21 21 2.0849610402564986E2
21 24 2.1583331563535135
21 34 1.2043013594666942E1
21 123 -7.316333588908492
21 127 -5.092203610876275
21 131 2.551907722247222
21 150 -2.4366697263934327
22 1 2.4589576170087923
22 3 -6.738768734136784
22 9 -7.144027321576095
22 11 -1.6003769804378499E2
22 20 2.158333156352922
22 22 1.8902951663501653E2
22 25 8.638385497607075
22 32 4.269479486640605
22 35 -1.0629315757169497
23 4 -6.738768734136784
23 12 -1.6003769804378499E2
23 23 1.8902951663501653E2
23 26 8.638385497607075
23 33 4.269479486640605
23 36 -1.0629315757169497
23 124 2.4589576170087923
23 128 -7.144027321576095
23 132 2.158333156352922
24 2 2.4589576170087923
24 5 -6.738768734136784
24 10 -7.144027321576095
24 13 -1.6003769804378499E2
24 21 2.158333156352922
24 24 1.8902951663501653E2
24 27 8.638385497607075
24 34 4.269479486640605
24 37 -1.0629315757169497
25 3 -3.830990026289953
25 6 -7.5094648303644504
25 11 -1.57294526083166E1
25 14 -5.2963517269423164E1
25 22 8.638385497607189
25 25 9.392591826862878E1
25 28 7.706540616634499E-1
25 35 -8.298700979377639
26 4 -3.830990026289953
26 7 -7.5094648303644504
26 12 -1.57294526083166E1
26 15 -5.2963517269423164E1
26 23 8.638385497607189
26 26 9.392591826862878E1
26 29 7.706540616634499E-1
26 36 -8.298700979377639
27 5 -3.830990026289953
27 8 -7.5094648303644504
27 13 -1.57294526083166E1
27 16 -5.2963517269423164E1
27 24 8.638385497607189
27 27 9.392591826862878E1
27 30 7.706540616634499E-1
27 37 -8.298700979377639
28 6 -1.655704285345496E1
28 14 -2.036934673491072E1
28 17 -8.801635605458137E1
28 25 7.706540616639046E-1
28 28 2.360994544574235E2
28 35 1.1793676704491793E1
28 109 2.226391244519121
28 696 -8.23559681778795
28 714 -1.5953424675552185E1
28 735 -2.1059229990669543E1
28 756 -1.8770978018759152E1
29 7 -1.655704285345496E1
29 15 -2.036934673491072E1
29 18 -8.801635605458137E1
29 26 7.706540616639046E-1
29 29 2.360994544574235E2
29 36 1.1793676704491793E1
29 48 2.226391244519121
29 697 -8.23559681778795
29 715 -1.5953424675552185E1
29 736 -2.1059229990669543E1
29 757 -1.8770978018759152E1
30 8 -1.655704285345496E1
30 16 -2.036934673491072E1
30 19 -8.801635605458137E1
30 27 7.706540616639046E-1
30 30 2.360994544574235E2
30 37 1.1793676704491793E1
30 110 2.226391244519121
30 698 -8.23559681778795
30 716 -1.5953424675552185E1
30 737 -2.1059229990669543E1
30 758 -1.8770978018759152E1
31 18 6.077460452409831E-1
31 31 3.583354845026272E2
31 39 -4.649796276984816E1
31 46 -1.2243191686094193E1
31 48 -1.2687136109757706E1
31 58 -9.160803389846208
31 62 -7.662754981690702
31 95 3.621746658553752E1
31 720 -3.509081094301029E1
31 727 1.895283760035111E1
31 748 1.8041600009005364E1
31 757 4.260722368057413
32 1 -2.2552926273550092E1
32 3 -5.383297041256377E-1
32 9 -8.463551020997702
32 11 -7.767960117373399E-1
32 20 1.2043013594667048E1
32 22 4.269479486640636
32 32 1.964826907759968E2
32 35 -6.650766031807876
32 43 -3.384814822144054E1
32 77 3.146897453002671E1
32 109 5.374161716262705
32 148 -7.04319873763005
32 195 5.388893136687102
32 221 -2.879817214794856E1
33 4 -5.383297041256377E-1
33 12 -7.767960117373399E-1
33 23 4.269479486640636
33 33 1.964826907759968E2
33 36 -6.650766031807876
33 44 -3.384814822144054E1
33 48 5.374161716262705
33 78 3.146897453002671E1
33 124 -2.2552926273550092E1
33 128 -8.463551020997702
33 132 1.2043013594667048E1
33 149 -7.04319873763005
33 196 5.388893136687102
33 222 -2.879817214794856E1
34 2 -2.2552926273550092E1
34 5 -5.383297041256377E-1
34 10 -8.463551020997702
34 13 -7.767960117373399E-1
34 21 1.2043013594667048E1
34 24 4.269479486640636
34 34 1.964826907759968E2
34 37 -6.650766031807876
34 45 -3.384814822144054E1
34 79 3.146897453002671E1
34 110 5.374161716262705
34 150 -7.04319873763005
34 197 5.388893136687102
34 223 -2.879817214794856E1
35 3 -7.53915719678372
35 6 -5.763573077200618
35 11 4.856173447467775
35 14 2.149645353195666E-1
35 22 -1.0629315757173954
35 25 -8.298700979378026
35 28 1.179367670449131E1
35 32 -6.650766031807763
35 35 1.4441742739557847E2
35 43 1.424528181448791E1
35 74 2.9024512994631255
35 77 -6.037023708674241E-1
35 109 -1.9432311078398513E1
35 735 -1.899709717694769
36 4 -7.53915719678372
36 7 -5.763573077200618
36 12 4.856173447467775
36 15 2.149645353195666E-1
36 23 -1.0629315757173954
36 26 -8.298700979378026
36 29 1.179367670449131E1
36 33 -6.650766031807763
36 36 1.4441742739557847E2
36 44 1.424528181448791E1
36 48 -1.9432311078398513E1
36 75 2.9024512994631255
36 78 -6.037023708674241E-1
36 736 -1.899709717694769
37 5 -7.53915719678372
37 8 -5.763573077200618
37 13 4.856173447467775
37 16 2.149645353195666E-1
37 24 -1.0629315757173954
37 27 -8.298700979378026
37 30 1.179367670449131E1
37 34 -6.650766031807763
37 37 1.4441742739557847E2
37 45 1.424528181448791E1
37 76 2.9024512994631255
37 79 -6.037023708674241E-1
37 110 -1.9432311078398513E1
37 737 -1.899709717694769
38 17 -2.814945813559968E1
38 38 1.0925629174813584E2
38 60 -4.649796276984928E1
38 109 2.2615803798154545E1
38 709 1.1636492732057846
38 726 -1.0005022734263989E1
38 756 -2.3238560586829998E1
39 18 -2.814945813559968E1
39 31 -4.649796276984928E1
39 39 1.0925629174813584E2
39 48 2.2615803798154545E1
39 710 1.1636492732057846
39 727 -1.0005022734263989E1
39 757 -2.3238560586829998E1
40 9 -2.273843479819865E1
40 11 -1.1934235838781026E1
40 40 1.1518869938658467E2
40 43 1.0069572270281633E1
40 64 -2.5700404700656847E1
40 139 -1.036831001951551E1
40 154 -2.3984513651905095
40 221 1.622781076726652E1
41 12 -1.1934235838781026E1
41 41 1.1518869938658467E2
41 44 1.0069572270281633E1
41 65 -2.5700404700656847E1
41 128 -2.273843479819865E1
41 140 -1.036831001951551E1
41 155 -2.3984513651905095
41 222 1.622781076726652E1
42 10 -2.273843479819865E1
42 13 -1.1934235838781026E1
42 42 1.1518869938658467E2
42 45 1.0069572270281633E1
42 66 -2.5700404700656847E1
42 141 -1.036831001951551E1
42 156 -2.3984513651905095
42 223 1.622781076726652E1
43 11 -5.903308230834183E1
43 14 -3.377252090573431E1
43 32 -3.384814822143879E1
43 35 1.424528181448703E1
43 40 1.0069572270280553E1
43 43 4.835478563708567E2
43 61 -4.2802672417241666E1
43 64 -4.774900519637927E1
43 84 1.852484005983286E1
43 88 6.482825705261118E1
43 94 4.457482683847055E1
43 109 -1.255679867584799E1
43 221 2.6388099455392933E1
44 12 -5.903308230834183E1
44 15 -3.377252090573431E1
44 33 -3.384814822143879E1
44 36 1.424528181448703E1
44 41 1.0069572270280553E1
44 44 4.835478563708567E2
44 46 1.852484005983286E1
44 48 -1.255679867584799E1
44 62 -4.2802672417241666E1
44 65 -4.774900519637927E1
44 89 6.482825705261118E1
44 95 4.457482683847055E1
44 222 2.6388099455392933E1
45 13 -5.903308230834183E1
45 16 -3.377252090573431E1
45 34 -3.384814822143879E1
45 37 1.424528181448703E1
45 42 1.0069572270280553E1
45 45 4.835478563708567E2
45 47 1.852484005983286E1
45 63 -4.2802672417241666E1
45 66 -4.774900519637927E1
45 90 6.482825705261118E1
45 96 4.457482683847055E1
45 110 -1.255679867584799E1
45 223 2.6388099455392933E1
46 15 7.0922348303309235
46 18 -1.048939282158942E1
46 31 -1.2243191686094278E1
46 44 1.8524840059833146E1
46 46 6.633494498454294E1
46 48 -9.671575274000265E-1
46 62 -2.8544026333929324E1
47 16 7.0922348303309235
47 19 -1.048939282158942E1
47 45 1.8524840059833146E1
47 47 6.633494498454294E1
47 63 -2.8544026333929324E1
47 110 -9.671575274000265E-1
47 729 -1.2243191686094278E1
48 15 -5.0972794077693E-1
48 18 -1.694237637208515E1
48 29 2.2263912445191494
48 31 -1.2687136109757015E1
48 33 5.374161716262222
48 36 -1.9432311078396566E1
48 39 2.2615803798154506E1
48 44 -1.2556798675849496E1
48 46 -9.671575273992701E-1
48 48 4.868711500061041E2
48 53 1.4959418624478086E1
48 62 2.176564262040941E-1
48 73 -3.6406752490893815E1
48 75 -5.7544390555870535E1
48 78 -3.4649635034430872
48 89 1.7102396520108073E1
48 92 -1.050374643937331E2
48 95 1.3693931580973365E1
48 98 3.7694557049333476E1
48 104 1.2482482187287923E2
48 107 -6.401588745808826E1
48 111 -1.188342985248089E1
48 222 2.766128869233504E1
48 736 3.227512715434018E1
48 748 -2.5635577289731724E1
48 757 -1.0328590078981777E2
49 49 1.1706776689261349E2
49 50 2.9563197764069145
49 80 2.1551577521565815
49 83 4.326779124116772
49 103 -7.558349965939001
49 358 -1.6222602982716936E1
49 381 1.852841625980949E1
49 394 4.623194559538831
49 411 -1.1064327300682912E1
49 446 2.6625820326094377E1
50 49 2.956319776407227
50 50 1.0239658769987466E2
50 74 3.052106550848684
50 80 1.8803078440758938
50 83 1.8033182754637902E1
50 103 -9.301245260939673
50 702 6.82336492119245
50 759 -1.7370626280149196E1
50 868 6.637222085678573
51 51 1.0239658769987466E2
51 53 6.82336492119245
51 75 3.052106550848684
51 81 1.8803078440758938
51 104 -9.301245260939673
51 111 -1.7370626280149196E1
51 397 2.956319776407227
51 427 1.8033182754637902E1
51 869 6.637222085678573
52 52 1.0239658769987466E2
52 76 3.052106550848684
52 82 1.8803078440758938
52 105 -9.301245260939673
52 365 1.8033182754637902E1
52 398 2.956319776407227
52 426 6.637222085678573
52 703 6.82336492119245
52 760 -1.7370626280149196E1
53 48 1.4959418624478747E1
53 51 6.823364921191853
53 53 2.65465198853389E2
53 75 -1.1028601998539557E1
53 111 7.993055415664685E-2
53 705 1.0750411859227569E1
53 736 8.302546219170049
53 754 4.5405567428634356E1
53 757 -4.079685398443579E1
53 869 -4.198629598107891
53 871 -8.538064846164175
54 54 2.9256634822890497E1
54 57 7.510255271249028E-1
54 61 -7.0892006455772645
54 64 -3.253318188594389E1
54 88 1.2152555624683252E1
54 94 -1.655791609787202E1
54 136 1.2883595775911427E-1
55 55 2.9256634822890497E1
55 58 7.510255271249028E-1
55 62 -7.0892006455772645
55 65 -3.253318188594389E1
55 89 1.2152555624683252E1
55 95 -1.655791609787202E1
55 137 1.2883595775911427E-1
56 56 2.9256634822890497E1
56 59 7.510255271249028E-1
56 63 -7.0892006455772645
56 66 -3.253318188594389E1
56 90 1.2152555624683252E1
56 96 -1.655791609787202E1
56 138 1.2883595775911427E-1
57 54 7.510255271250769E-1
57 57 3.7899352647321514E1
57 60 -9.160803389846203
57 61 -3.04922186705173E-1
57 94 1.3236841597565103
57 719 -5.538725044828356E-1
57 747 9.594107466698576
58 31 -9.160803389846203
58 55 7.510255271250769E-1
58 58 3.7899352647321514E1
58 62 -3.04922186705173E-1
58 95 1.3236841597565103
58 720 -5.538725044828356E-1
58 748 9.594107466698576
59 56 7.510255271250769E-1
59 59 3.7899352647321514E1
59 63 -3.04922186705173E-1
59 96 1.3236841597565103
59 721 -5.538725044828356E-1
59 729 -9.160803389846203
59 749 9.594107466698576
60 17 6.077460452409831E-1
60 38 -4.649796276984816E1
60 57 -9.160803389846208
60 60 3.583354845026272E2
60 61 -7.662754981690702
60 84 -1.2243191686094193E1
60 94 3.621746658553752E1
60 109 -1.2687136109757706E1
60 719 -3.509081094301029E1
60 726 1.895283760035111E1
60 747 1.8041600009005364E1
60 756 4.260722368057413
61 43 -4.2802672417240984E1
61 54 -7.08920064557698
61 57 -3.0492218670556204E-1
61 60 -7.662754981689082
61 61 6.558470641231433E1
61 64 5.070545987351506
61 84 -2.854402633392945E1
61 94 -2.036306695391941E1
61 109 2.1765642620339065E-1
62 31 -7.662754981689082
62 44 -4.2802672417240984E1
62 46 -2.854402633392945E1
62 48 2.1765642620339065E-1
62 55 -7.08920064557698
62 58 -3.0492218670556204E-1
62 62 6.558470641231433E1
62 65 5.070545987351506
62 95 -2.036306695391941E1
63 45 -4.2802672417240984E1
63 47 -2.854402633392945E1
63 56 -7.08920064557698
63 59 -3.0492218670556204E-1
63 63 6.558470641231433E1
63 66 5.070545987351506
63 96 -2.036306695391941E1
63 110 2.1765642620339065E-1
63 729 -7.662754981689082
64 40 -2.5700404700656726E1
64 43 -4.7749005196380715E1
64 54 -3.253318188594366E1
64 61 5.070545987352103
64 64 2.3331766947112558E2
64 88 -6.465101065242156E1
64 94 -1.2813521840017595E1
64 136 -4.598973224712834
64 139 -1.5199022038789E1
64 221 2.3714911832033508E1
65 41 -2.5700404700656726E1
65 44 -4.7749005196380715E1
65 55 -3.253318188594366E1
65 62 5.070545987352103
65 65 2.3331766947112558E2
65 89 -6.465101065242156E1
65 95 -1.2813521840017595E1
65 137 -4.598973224712834
65 140 -1.5199022038789E1
65 222 2.3714911832033508E1
66 42 -2.5700404700656726E1
66 45 -4.7749005196380715E1
66 56 -3.253318188594366E1
66 63 5.070545987352103
66 66 2.3331766947112558E2
66 90 -6.465101065242156E1
66 96 -1.2813521840017595E1
66 138 -4.598973224712834
66 141 -1.5199022038789E1
66 223 2.3714911832033508E1
67 67 1.0926618631089518E2
67 70 1.5491716224287183E1
67 85 -5.181378546655171E1
67 100 -9.93881392555721
67 103 -3.105105885750325E1
67 368 -1.6620384980638413E1
67 381 4.141456486146193
67 401 1.0266819475107559E1
67 428 -5.398991393048046E1
67 446 2.3097902334802882E1
68 68 1.0926618631089518E2
68 71 1.5491716224287183E1
68 86 -5.181378546655171E1
68 101 -9.93881392555721
68 104 -3.105105885750325E1
68 369 -1.6620384980638413E1
68 382 4.141456486146193
68 402 1.0266819475107559E1
68 429 -5.398991393048046E1
68 447 2.3097902334802882E1
69 69 1.0926618631089518E2
69 72 1.5491716224287183E1
69 87 -5.181378546655171E1
69 102 -9.93881392555721
69 105 -3.105105885750325E1
69 357 1.0266819475107559E1
69 370 -1.6620384980638413E1
69 383 4.141456486146193
69 430 -5.398991393048046E1
69 448 2.3097902334802882E1
70 67 1.5491716224285964E1
70 70 1.1627934774573643E2
70 85 -6.2467362127048865E1
70 91 -1.537774789336204E1
70 100 -1.3383220437380073E1
70 103 -7.06341357437688
70 730 2.669296850085767E1
70 745 -3.1811611106967645
70 759 -1.8467709104250723E1
71 68 1.5491716224285964E1
71 71 1.1627934774573643E2
71 73 2.669296850085767E1
71 86 -6.2467362127048865E1
71 92 -1.537774789336204E1
71 101 -1.3383220437380073E1
71 104 -7.06341357437688
71 111 -1.8467709104250723E1
71 876 -3.1811611106967645
72 69 1.5491716224285964E1
72 72 1.1627934774573643E2
72 87 -6.2467362127048865E1
72 93 -1.537774789336204E1
72 102 -1.3383220437380073E1
72 105 -7.06341357437688
72 731 2.669296850085767E1
72 746 -3.1811611106967645
72 760 -1.8467709104250723E1
73 48 -3.6406752490893496E1
73 71 2.6692968500857376E1
73 73 6.155005744590567E2
73 92 -8.775629539842777E1
73 111 -6.531994231016327E1
73 733 -1.690405546084904E1
73 748 -3.492097081973182E1
73 754 7.534798721553145E1
73 757 8.282688223002042E1
73 876 -6.314729162156606
73 878 -7.32802516210947E1
74 35 2.902451299462223
74 50 3.0521065508477463
74 74 3.2155525102339885E2
74 77 1.77436121298406E1
74 80 4.056118333638636
74 103 6.194058443701051E1
74 106 6.3299128912417146E1
74 109 -5.754439055587153E1
74 702 -1.1028601998544445E1
74 735 1.7853681283098002
74 759 -3.494718288845448E1
75 36 2.902451299462223
75 48 -5.754439055587153E1
75 51 3.0521065508477463
75 53 -1.1028601998544445E1
75 75 3.2155525102339885E2
75 78 1.77436121298406E1
75 81 4.056118333638636
75 104 6.194058443701051E1
75 107 6.3299128912417146E1
75 111 -3.494718288845448E1
75 736 1.7853681283098002
76 37 2.902451299462223
76 52 3.0521065508477463
76 76 3.2155525102339885E2
76 79 1.77436121298406E1
76 82 4.056118333638636
76 105 6.194058443701051E1
76 108 6.3299128912417146E1
76 110 -5.754439055587153E1
76 703 -1.1028601998544445E1
76 737 1.7853681283098002
76 760 -3.494718288845448E1
77 32 3.1468974530026667E1
77 35 -6.037023708673956E-1
77 74 1.7743612129842248E1
77 77 1.4575306617620438E2
77 80 -1.2740467028649718
77 106 -2.8297357697806746E1
77 109 -3.4649635034433146
77 195 3.62668973068957
77 221 5.39229303052015E1
77 425 1.6009398491048952
78 33 3.1468974530026667E1
78 36 -6.037023708673956E-1
78 48 -3.4649635034433146
78 75 1.7743612129842248E1
78 78 1.4575306617620438E2
78 81 -1.2740467028649718
78 107 -2.8297357697806746E1
78 196 3.62668973068957
78 202 1.6009398491048952
78 222 5.39229303052015E1
79 34 3.1468974530026667E1
79 37 -6.037023708673956E-1
79 76 1.7743612129842248E1
79 79 1.4575306617620438E2
79 82 -1.2740467028649718
79 108 -2.8297357697806746E1
79 110 -3.4649635034433146
79 197 3.62668973068957
79 203 1.6009398491048952
79 223 5.39229303052015E1
80 49 2.1551577521571854
80 50 1.8803078440767464
80 74 4.056118333639233
80 77 -1.2740467028660092
80 80 1.0972916245091898E2
80 103 2.0960477166853593E1
80 106 -1.6910891310644573E1
80 411 7.337916052689181
80 425 2.2956258165906007E-1
81 51 1.8803078440767464
81 75 4.056118333639233
81 78 -1.2740467028660092
81 81 1.0972916245091898E2
81 104 2.0960477166853593E1
81 107 -1.6910891310644573E1
81 202 2.2956258165906007E-1
81 397 2.1551577521571854
81 412 7.337916052689181
82 52 1.8803078440767464
82 76 4.056118333639233
82 79 -1.2740467028660092
82 82 1.0972916245091898E2
82 105 2.0960477166853593E1
82 108 -1.6910891310644573E1
82 203 2.2956258165906007E-1
82 398 2.1551577521571854
82 413 7.337916052689181
83 49 4.3267791241177385
83 50 1.8033182754638997E1
83 83 3.4178046243404503E2
83 103 4.120400476475089E1
83 358 1.4054343261920188E-1
83 381 2.722138132923942E1
83 492 1.1957690335580665E1
83 603 5.801358064705415
83 625 -4.5914005340586016E1
83 759 -1.957129740544707E1
83 868 -2.120368828499821
84 14 7.0922348303309235
84 17 -1.048939282158942E1
84 43 1.8524840059833146E1
84 60 -1.2243191686094278E1
84 61 -2.8544026333929324E1
84 84 6.633494498454294E1
84 109 -9.671575274000265E-1
85 67 -5.181378546655198E1
85 70 -6.2467362127048254E1
85 85 3.789557496566838E2
85 103 1.8395234073575455E1
85 368 2.042630249548417E1
85 381 8.87323332324631
85 610 -1.5627830693852912E1
85 619 -2.331401972202123E1
85 625 3.343432994529912E1
85 745 1.1952510864428186E1
85 759 6.026225582604583E1
86 68 -5.181378546655198E1
86 71 -6.2467362127048254E1
86 86 3.789557496566838E2
86 104 1.8395234073575455E1
86 111 6.026225582604583E1
86 369 2.042630249548417E1
86 382 8.87323332324631
86 611 -1.5627830693852912E1
86 620 -2.331401972202123E1
86 626 3.343432994529912E1
86 876 1.1952510864428186E1
87 69 -5.181378546655198E1
87 72 -6.2467362127048254E1
87 87 3.789557496566838E2
87 105 1.8395234073575455E1
87 370 2.042630249548417E1
87 383 8.87323332324631
87 612 -1.5627830693852912E1
87 621 -2.331401972202123E1
87 627 3.343432994529912E1
87 746 1.1952510864428186E1
87 760 6.026225582604583E1
88 43 6.482825705261021E1
88 54 1.2152555624683583E1
88 64 -6.465101065242112E1
88 88 2.2123617526154868E2
88 94 -1.947841056454525
88 97 -5.995894018507421E1
88 109 1.7102396520108975E1
88 136 -1.1800364658423877E1
88 139 4.054770831060066
88 207 1.2408268587811941E1
88 213 -6.806923085788788
88 221 -5.948316818845937E1
89 44 6.482825705261021E1
89 48 1.7102396520108975E1
89 55 1.2152555624683583E1
89 65 -6.465101065242112E1
89 89 2.2123617526154868E2
89 95 -1.947841056454525
89 98 -5.995894018507421E1
89 137 -1.1800364658423877E1
89 140 4.054770831060066
89 160 -6.806923085788788
89 208 1.2408268587811941E1
89 222 -5.948316818845937E1
90 45 6.482825705261021E1
90 56 1.2152555624683583E1
90 66 -6.465101065242112E1
90 90 2.2123617526154868E2
90 96 -1.947841056454525
90 99 -5.995894018507421E1
90 110 1.7102396520108975E1
90 138 -1.1800364658423877E1
90 141 4.054770831060066
90 161 -6.806923085788788
90 209 1.2408268587811941E1
90 223 -5.948316818845937E1
91 70 -1.5377747893362104E1
91 91 2.375398617947545E2
91 94 -3.592187349024208E1
91 97 -2.5716064753730773E1
91 100 1.0721354807891194E1
91 103 -1.1369064777004748E2
91 106 4.934418648356332E1
91 109 -1.050374643937327E2
91 730 -8.775629539843094E1
91 747 7.465539860671928
91 759 5.189479767255785
92 48 -1.050374643937327E2
92 71 -1.5377747893362104E1
92 73 -8.775629539843094E1
92 92 2.375398617947545E2
92 95 -3.592187349024208E1
92 98 -2.5716064753730773E1
92 101 1.0721354807891194E1
92 104 -1.1369064777004748E2
92 107 4.934418648356332E1
92 111 5.189479767255785
92 748 7.465539860671928
93 72 -1.5377747893362104E1
93 93 2.375398617947545E2
93 96 -3.592187349024208E1
93 99 -2.5716064753730773E1
93 102 1.0721354807891194E1
93 105 -1.1369064777004748E2
93 108 4.934418648356332E1
93 110 -1.050374643937327E2
93 731 -8.775629539843094E1
93 749 7.465539860671928
93 760 5.189479767255785
94 43 4.457482683846905E1
94 54 -1.6557916097872067E1
94 57 1.3236841597565396
94 60 3.62174665855365E1
94 61 -2.0363066953916814E1
94 64 -1.2813521840017247E1
94 88 -1.9478410564512565
94 91 -3.592187349024225E1
94 94 2.4508714874789274E2
94 97 1.6519936597785442E1
94 109 1.3693931580973464E1
94 747 -1.871483656202262E1
95 31 3.62174665855365E1
95 44 4.457482683846905E1
95 48 1.3693931580973464E1
95 55 -1.6557916097872067E1
95 58 1.3236841597565396
95 62 -2.0363066953916814E1
95 65 -1.2813521840017247E1
95 89 -1.9478410564512565
95 92 -3.592187349024225E1
95 95 2.4508714874789274E2
95 98 1.6519936597785442E1
95 748 -1.871483656202262E1
96 45 4.457482683846905E1
96 56 -1.6557916097872067E1
96 59 1.3236841597565396
96 63 -2.0363066953916814E1
96 66 -1.2813521840017247E1
96 90 -1.9478410564512565
96 93 -3.592187349024225E1
96 96 2.4508714874789274E2
96 99 1.6519936597785442E1
96 110 1.3693931580973464E1
96 729 3.62174665855365E1
96 749 -1.871483656202262E1
97 88 -5.995894018507393E1
97 91 -2.5716064753730492E1
97 94 1.6519936597786664E1
97 97 2.878140735197528E2
97 100 -2.5206649832303583E1
97 106 2.4318355804011205
97 109 3.76945570493341E1
97 207 -4.35188475986329
97 221 5.981455808540919E1
97 443 -2.2044127491770746
98 48 3.76945570493341E1
98 89 -5.995894018507393E1
98 92 -2.5716064753730492E1
98 95 1.6519936597786664E1
98 98 2.878140735197528E2
98 101 -2.5206649832303583E1
98 107 2.4318355804011205
98 208 -4.35188475986329
98 222 5.981455808540919E1
98 444 -2.2044127491770746
99 90 -5.995894018507393E1
99 93 -2.5716064753730492E1
99 96 1.6519936597786664E1
99 99 2.878140735197528E2
99 102 -2.5206649832303583E1
99 108 2.4318355804011205
99 110 3.76945570493341E1
99 209 -4.35188475986329
99 223 5.981455808540919E1
99 445 -2.2044127491770746
100 67 -9.938813925557202
100 70 -1.3383220437380144E1
100 91 1.0721354807889218E1
100 97 -2.5206649832303363E1
100 100 1.6441031059943217E2
100 103 -1.1070763322705243E1
100 106 2.7999592905022563E1
100 428 2.4102213285308956E1
100 443 -1.916820464355226E1
101 68 -9.938813925557202
101 71 -1.3383220437380144E1
101 92 1.0721354807889218E1
101 98 -2.5206649832303363E1
101 101 1.6441031059943217E2
101 104 -1.1070763322705243E1
101 107 2.7999592905022563E1
101 429 2.4102213285308956E1
101 444 -1.916820464355226E1
102 69 -9.938813925557202
102 72 -1.3383220437380144E1
102 93 1.0721354807889218E1
102 99 -2.5206649832303363E1
102 102 1.6441031059943217E2
102 105 -1.1070763322705243E1
102 108 2.7999592905022563E1
102 430 2.4102213285308956E1
102 445 -1.916820464355226E1
103 49 -7.5583499659388735
103 50 -9.301245260939908
103 67 -3.1051058857504948E1
103 70 -7.063413574377008
103 74 6.194058443700912E1
103 80 2.0960477166852883E1
103 83 4.120400476475039E1
103 85 1.8395234073576535E1
103 91 -1.1369064777004897E2
103 100 -1.1070763322706384E1
103 103 5.805798099248505E2
103 106 -4.3100072049668604E1
103 109 1.2482482187287974E2
103 381 -3.83018114888423E1
103 411 2.139341660811612E1
103 428 8.80914968036033E1
103 446 -6.1522733043489026E1
103 759 -9.18924107324333E1
104 48 1.2482482187287974E2
104 51 -9.301245260939908
104 68 -3.1051058857504948E1
104 71 -7.063413574377008
104 75 6.194058443700912E1
104 81 2.0960477166852883E1
104 86 1.8395234073576535E1
104 92 -1.1369064777004897E2
104 101 -1.1070763322706384E1
104 104 5.805798099248505E2
104 107 -4.3100072049668604E1
104 111 -9.18924107324333E1
104 382 -3.83018114888423E1
104 397 -7.5583499659388735
104 412 2.139341660811612E1
104 427 4.120400476475039E1
104 429 8.80914968036033E1
104 447 -6.1522733043489026E1
105 52 -9.301245260939908
105 69 -3.1051058857504948E1
105 72 -7.063413574377008
105 76 6.194058443700912E1
105 82 2.0960477166852883E1
105 87 1.8395234073576535E1
105 93 -1.1369064777004897E2
105 102 -1.1070763322706384E1
105 105 5.805798099248505E2
105 108 -4.3100072049668604E1
105 110 1.2482482187287974E2
105 365 4.120400476475039E1
105 383 -3.83018114888423E1
105 398 -7.5583499659388735
105 413 2.139341660811612E1
105 430 8.80914968036033E1
105 448 -6.1522733043489026E1
105 760 -9.18924107324333E1
106 74 6.3299128912414844E1
106 77 -2.8297357697805865E1
106 80 -1.6910891310645425E1
106 91 4.9344186483563185E1
106 97 2.4318355804013407
106 100 2.7999592905022638E1
106 103 -4.3100072049670786E1
106 106 3.879960494266168E2
106 109 -6.40158874580898E1
106 195 -5.560326960425408E1
106 207 -4.572473421318091E1
106 221 4.216040592603889E-1
106 411 6.88955651531716
106 423 -2.3289913986121064E1
106 425 -2.3455852782440807E1
106 428 5.92020663934271E1
106 440 9.368131029877262
106 443 -4.648931446027567E1
106 446 -9.823100302638366
107 48 -6.40158874580898E1
107 75 6.3299128912414844E1
107 78 -2.8297357697805865E1
107 81 -1.6910891310645425E1
107 92 4.9344186483563185E1
107 98 2.4318355804013407
107 101 2.7999592905022638E1
107 104 -4.3100072049670786E1
107 107 3.879960494266168E2
107 196 -5.560326960425408E1
107 202 -2.3455852782440807E1
107 208 -4.572473421318091E1
107 222 4.216040592603889E-1
107 412 6.88955651531716
107 424 -2.3289913986121064E1
107 429 5.92020663934271E1
107 441 9.368131029877262
107 444 -4.648931446027567E1
107 447 -9.823100302638366
108 76 6.3299128912414844E1
108 79 -2.8297357697805865E1
108 82 -1.6910891310645425E1
108 93 4.9344186483563185E1
108 99 2.4318355804013407
108 102 2.7999592905022638E1
108 105 -4.3100072049670786E1
108 108 3.879960494266168E2
108 110 -6.40158874580898E1
108 197 -5.560326960425408E1
108 201 -2.3289913986121064E1
108 203 -2.3455852782440807E1
108 209 -4.572473421318091E1
108 223 4.216040592603889E-1
108 413 6.88955651531716
108 430 5.92020663934271E1
108 442 9.368131029877262
108 445 -4.648931446027567E1
108 448 -9.823100302638366
109 14 -5.0972794077693E-1
109 17 -1.694237637208515E1
109 28 2.2263912445191494
109 32 5.374161716262222
109 35 -1.9432311078396566E1
109 38 2.2615803798154506E1
109 43 -1.2556798675849496E1
109 60 -1.2687136109757015E1
109 61 2.176564262040941E-1
109 74 -5.7544390555870535E1
109 77 -3.4649635034430872
109 84 -9.671575273992701E-1
109 88 1.7102396520108073E1
109 91 -1.050374643937331E2
109 94 1.3693931580973365E1
109 97 3.7694557049333476E1
109 103 1.2482482187287923E2
109 106 -6.401588745808826E1
109 109 4.868711500061041E2
109 221 2.766128869233504E1
109 702 1.4959418624478086E1
109 730 -3.6406752490893815E1
109 735 3.227512715434018E1
109 747 -2.5635577289731724E1
109 756 -1.0328590078981777E2
109 759 -1.188342985248089E1
110 16 -5.0972794077693E-1
110 19 -1.694237637208515E1
110 30 2.2263912445191494
110 34 5.374161716262222
110 37 -1.9432311078396566E1
110 45 -1.2556798675849496E1
110 47 -9.671575273992701E-1
110 63 2.176564262040941E-1
110 76 -5.7544390555870535E1
110 79 -3.4649635034430872
110 90 1.7102396520108073E1
110 93 -1.050374643937331E2
110 96 1.3693931580973365E1
110 99 3.7694557049333476E1
110 105 1.2482482187287923E2
110 108 -6.401588745808826E1
110 110 4.868711500061041E2
110 223 2.766128869233504E1
110 703 1.4959418624478086E1
110 729 -1.2687136109757015E1
110 731 -3.6406752490893815E1
110 737 3.227512715434018E1
110 744 2.2615803798154506E1
110 749 -2.5635577289731724E1
110 758 -1.0328590078981777E2
110 760 -1.188342985248089E1
111 48 -1.1883429852481854E1
111 51 -1.737062628014843E1
111 53 7.993055415721528E-2
111 71 -1.8467709104250403E1
111 73 -6.531994231016374E1
111 75 -3.4947182888454066E1
111 86 6.026225582604552E1
111 92 5.189479767255429
111 104 -9.189241073243414E1
111 111 5.476939129021537E2
111 382 1.8435242748942862E1
111 427 -1.9571297405448377E1
111 626 -1.1650877618178736E1
111 754 -3.939275542638682E1
111 757 4.149627721679147E1
111 869 -1.7959418906012417E1
111 871 9.865991227146687E-1
111 876 -1.801439692565548E1
111 878 1.8234460929249753E1
111 884 -4.172473976615517E1
112 112 2.1000383669505823E1
112 118 6.880869559049358E-1
112 121 1.2451556814608011E-1
112 125 -3.504587929149591
112 129 -2.703737640407592
112 145 -4.208412239004389
112 151 -1.5435110123056286E-1
112 164 3.7507930209357596
113 113 2.1000383669505823E1
113 119 6.880869559049358E-1
113 122 1.2451556814608011E-1
113 126 -3.504587929149591
113 130 -2.703737640407592
113 146 -4.208412239004389
113 152 -1.5435110123056286E-1
113 165 3.7507930209357596
114 114 2.1000383669505823E1
114 120 6.880869559049358E-1
114 123 1.2451556814608011E-1
114 127 -3.504587929149591
114 131 -2.703737640407592
114 147 -4.208412239004389
114 153 -1.5435110123056286E-1
114 166 3.7507930209357596
115 115 8.52655081312142
115 133 -2.3609409212552523E-1
115 142 -1.7825367129637917
115 145 -4.08942083322132
115 157 7.833808746268886
115 179 -6.785465401020283E-1
115 189 7.765267088681875
115 214 4.528966483191235E-1
116 116 8.52655081312142
116 134 -2.3609409212552523E-1
116 143 -1.7825367129637917
116 146 -4.08942083322132
116 158 7.833808746268886
116 162 4.528966483191235E-1
116 180 -6.785465401020283E-1
116 190 7.765267088681875
117 117 8.52655081312142
117 135 -2.3609409212552523E-1
117 144 -1.7825367129637917
117 147 -4.08942083322132
117 159 7.833808746268886
117 163 4.528966483191235E-1
117 181 -6.785465401020283E-1
117 191 7.765267088681875
118 112 6.880869559049358E-1
118 118 2.1489722353217218E1
118 151 -1.6657944533419347
118 164 4.435499435450403
118 170 -6.0116951206709714
118 198 8.567377982965773
118 215 3.319470203200581E-2
119 113 6.880869559049358E-1
119 119 2.1489722353217218E1
119 152 -1.6657944533419347
119 165 4.435499435450403
119 171 -6.0116951206709714
119 199 8.567377982965773
119 216 3.319470203200581E-2
120 114 6.880869559049358E-1
120 120 2.1489722353217218E1
120 153 -1.6657944533419347
120 166 4.435499435450403
120 172 -6.0116951206709714
120 200 8.567377982965773
120 217 3.319470203200581E-2
121 1 5.0117917893418
121 20 -7.316333588908549
121 112 1.2451556814610854E-1
121 121 3.490094984720872E1
121 129 -1.7739557774860486E1
121 148 -6.449560149082089E-1
121 151 -2.65121213569679E-1
122 113 1.2451556814610854E-1
122 122 3.490094984720872E1
122 124 5.0117917893418
122 130 -1.7739557774860486E1
122 132 -7.316333588908549
122 149 -6.449560149082089E-1
122 152 -2.65121213569679E-1
123 2 5.0117917893418
123 21 -7.316333588908549
123 114 1.2451556814610854E-1
123 123 3.490094984720872E1
123 131 -1.7739557774860486E1
123 150 -6.449560149082089E-1
123 153 -2.65121213569679E-1
124 4 2.9353994666548147
124 23 2.458957617008423
124 33 -2.2552926273550113E1
124 122 5.011791789341686
124 124 8.471446887765963E1
124 132 -6.067789479100759E1
124 149 7.909210272331649
125 9 1.0156875293339824
125 20 -5.092203610875878
125 112 -3.504587929149287
125 125 2.367970575262516E2
125 129 -1.8939010750524267E2
125 145 4.5709651655539574E-1
125 148 3.8956743557802835
125 151 -8.593615009602047E-1
125 154 1.4169604423929343
125 157 -1.8170448193624864
125 164 1.0657399641633546E1
126 113 -3.504587929149287
126 126 2.367970575262516E2
126 128 1.0156875293339824
126 130 -1.8939010750524267E2
126 132 -5.092203610875878
126 146 4.5709651655539574E-1
126 149 3.8956743557802835
126 152 -8.593615009602047E-1
126 155 1.4169604423929343
126 158 -1.8170448193624864
126 165 1.0657399641633546E1
127 10 1.0156875293339824
127 21 -5.092203610875878
127 114 -3.504587929149287
127 127 2.367970575262516E2
127 131 -1.8939010750524267E2
127 147 4.5709651655539574E-1
127 150 3.8956743557802835
127 153 -8.593615009602047E-1
127 156 1.4169604423929343
127 159 -1.8170448193624864
127 166 1.0657399641633546E1
128 12 -8.018387206762329
128 23 -7.14402732157633
128 33 -8.46355102099804
128 41 -2.273843479819864E1
128 126 1.015687529333512
128 128 2.0765783662384615E2
128 132 -1.3300937252653694E2
128 149 -2.256673668170143E1
128 155 -9.585958418219116
128 222 1.2683752199821466E1
129 20 2.551907722246739
129 112 -2.703737640407504
129 121 -1.7739557774860714E1
129 125 -1.8939010750524312E2
129 129 2.1902421372856134E2
129 148 -7.332877200274849E-1
129 151 8.110256206676548
130 113 -2.703737640407504
130 122 -1.7739557774860714E1
130 126 -1.8939010750524312E2
130 130 2.1902421372856134E2
130 132 2.551907722246739
130 149 -7.332877200274849E-1
130 152 8.110256206676548
131 21 2.551907722246739
131 114 -2.703737640407504
131 123 -1.7739557774860714E1
131 127 -1.8939010750524312E2
131 131 2.1902421372856134E2
131 150 -7.332877200274849E-1
131 153 8.110256206676548
132 23 2.1583331563535135
132 33 1.2043013594666942E1
132 122 -7.316333588908492
132 124 -6.067789479100804E1
132 126 -5.092203610876275
132 128 -1.330093725265392E2
132 130 2.551907722247222
132 132 2.0849610402564986E2
132 149 -2.4366697263934327
133 115 -2.3609409212553234E-1
133 133 1.5252521728057005E1
133 136 1.315897204633005
133 139 -4.013799158565906E-1
133 142 -1.3896020808064474E1
133 213 2.7200966313500774
133 214 -1.6028377265314822
134 116 -2.3609409212553234E-1
134 134 1.5252521728057005E1
134 137 1.315897204633005
134 140 -4.013799158565906E-1
134 143 -1.3896020808064474E1
134 160 2.7200966313500774
134 162 -1.6028377265314822
135 117 -2.3609409212553234E-1
135 135 1.5252521728057005E1
135 138 1.315897204633005
135 141 -4.013799158565906E-1
135 144 -1.3896020808064474E1
135 161 2.7200966313500774
135 163 -1.6028377265314822
136 54 1.2883595775892953E-1
136 64 -4.598973224712854
136 88 -1.1800364658424133E1
136 133 1.3158972046329727
136 136 3.230504250227678E1
136 139 -3.0700039814669122E1
136 213 2.933479282246334
137 55 1.2883595775892953E-1
137 65 -4.598973224712854
137 89 -1.1800364658424133E1
137 134 1.3158972046329727
137 137 3.230504250227678E1
137 140 -3.0700039814669122E1
137 160 2.933479282246334
138 56 1.2883595775892953E-1
138 66 -4.598973224712854
138 90 -1.1800364658424133E1
138 135 1.3158972046329727
138 138 3.230504250227678E1
138 141 -3.0700039814669122E1
138 161 2.933479282246334
139 40 -1.0368310019515784E1
139 64 -1.5199022038790051E1
139 88 4.054770831059771
139 133 -4.013799158567145E-1
139 136 -3.0700039814668774E1
139 139 2.039810784591961E2
139 142 -3.549276549667396
139 154 -2.505754402370014E1
139 213 1.0103296380096385E1
139 221 -4.5903991683285845
140 41 -1.0368310019515784E1
140 65 -1.5199022038790051E1
140 89 4.054770831059771
140 134 -4.013799158567145E-1
140 137 -3.0700039814668774E1
140 140 2.039810784591961E2
140 143 -3.549276549667396
140 155 -2.505754402370014E1
140 160 1.0103296380096385E1
140 222 -4.5903991683285845
141 42 -1.0368310019515784E1
141 66 -1.5199022038790051E1
141 90 4.054770831059771
141 135 -4.013799158567145E-1
141 138 -3.0700039814668774E1
141 141 2.039810784591961E2
141 144 -3.549276549667396
141 156 -2.505754402370014E1
141 161 1.0103296380096385E1
141 223 -4.5903991683285845
142 115 -1.7825367129632221
142 133 -1.3896020808064574E1
142 139 -3.549276549666664
142 142 5.9603261594382E1
142 154 8.802239718114475
142 157 1.288997671938807
142 213 -9.988795022372981
142 214 4.9495665158955054E-1
143 116 -1.7825367129632221
143 134 -1.3896020808064574E1
143 140 -3.549276549666664
143 143 5.9603261594382E1
143 155 8.802239718114475
143 158 1.288997671938807
143 160 -9.988795022372981
143 162 4.9495665158955054E-1
144 117 -1.7825367129632221
144 135 -1.3896020808064574E1
144 141 -3.549276549666664
144 144 5.9603261594382E1
144 156 8.802239718114475
144 159 1.288997671938807
144 161 -9.988795022372981
144 163 4.9495665158955054E-1
145 112 -4.20841223900436
145 115 -4.089420833221281
145 125 4.570965165552252E-1
145 145 4.1340902298979074E1
145 157 -2.141390886770276E1
145 164 -1.3612812090390456E1
145 189 1.8422256265927643
145 215 -1.0460899349346455
146 113 -4.20841223900436
146 116 -4.089420833221281
146 126 4.570965165552252E-1
146 146 4.1340902298979074E1
146 158 -2.141390886770276E1
146 165 -1.3612812090390456E1
146 190 1.8422256265927643
146 216 -1.0460899349346455
147 114 -4.20841223900436
147 117 -4.089420833221281
147 127 4.570965165552252E-1
147 147 4.1340902298979074E1
147 159 -2.141390886770276E1
147 166 -1.3612812090390456E1
147 191 1.8422256265927643
147 217 -1.0460899349346455
148 1 7.909210272331734
148 9 -2.2566736681699602E1
148 20 -2.4366697263934327
148 32 -7.043198737629368
148 121 -6.449560149082888E-1
148 125 3.895674355779626
148 129 -7.332877200275879E-1
148 148 1.5632659997472308E2
148 151 -3.4958853501434874E1
148 154 5.600292049460975E-1
148 195 6.579247605336164
148 198 5.0869614082311045
148 221 -4.4032579822596865E1
149 33 -7.043198737629368
149 122 -6.449560149082888E-1
149 124 7.909210272331734
149 126 3.895674355779626
149 128 -2.2566736681699602E1
149 130 -7.332877200275879E-1
149 132 -2.4366697263934327
149 149 1.5632659997472308E2
149 152 -3.4958853501434874E1
149 155 5.600292049460975E-1
149 196 6.579247605336164
149 199 5.0869614082311045
149 222 -4.4032579822596865E1
150 2 7.909210272331734
150 10 -2.2566736681699602E1
150 21 -2.4366697263934327
150 34 -7.043198737629368
150 123 -6.449560149082888E-1
150 127 3.895674355779626
150 131 -7.332877200275879E-1
150 150 1.5632659997472308E2
150 153 -3.4958853501434874E1
150 156 5.600292049460975E-1
150 197 6.579247605336164
150 200 5.0869614082311045
150 223 -4.4032579822596865E1
151 112 -1.5435110123057327E-1
151 118 -1.665794453342432
151 121 -2.651212135697577E-1
151 125 -8.593615009587836E-1
151 129 8.110256206676375
151 148 -3.495885350143499E1
151 151 2.585593509121034E2
151 154 2.0692586503108682E1
151 157 -1.050263448719429
151 164 1.6207883210333534E1
151 198 1.9048657876701395E1
151 215 1.3667246987166898E1
151 221 -3.6560801845218535E1
152 113 -1.5435110123057327E-1
152 119 -1.665794453342432
152 122 -2.651212135697577E-1
152 126 -8.593615009587836E-1
152 130 8.110256206676375
152 149 -3.495885350143499E1
152 152 2.585593509121034E2
152 155 2.0692586503108682E1
152 158 -1.050263448719429
152 165 1.6207883210333534E1
152 199 1.9048657876701395E1
152 216 1.3667246987166898E1
152 222 -3.6560801845218535E1
153 114 -1.5435110123057327E-1
153 120 -1.665794453342432
153 123 -2.651212135697577E-1
153 127 -8.593615009587836E-1
153 131 8.110256206676375
153 150 -3.495885350143499E1
153 153 2.585593509121034E2
153 156 2.0692586503108682E1
153 159 -1.050263448719429
153 166 1.6207883210333534E1
153 200 1.9048657876701395E1
153 217 1.3667246987166898E1
153 223 -3.6560801845218535E1
154 9 -9.585958418219576
154 40 -2.398451365188719
154 125 1.416960442393247
154 139 -2.5057544023697204E1
154 142 8.802239718114317
154 148 5.600292049458915E-1
154 151 2.069258650310882E1
154 154 1.000191980424284E2
154 157 4.148775357563052
154 213 -2.0776792511238797
154 214 1.1458229198963437E1
154 215 2.3881356174219547E1
154 221 -7.7748913461497535
155 41 -2.398451365188719
155 126 1.416960442393247
155 128 -9.585958418219576
155 140 -2.5057544023697204E1
155 143 8.802239718114317
155 149 5.600292049458915E-1
155 152 2.069258650310882E1
155 155 1.000191980424284E2
155 158 4.148775357563052
155 160 -2.0776792511238797
155 162 1.1458229198963437E1
155 216 2.3881356174219547E1
155 222 -7.7748913461497535
156 10 -9.585958418219576
156 42 -2.398451365188719
156 127 1.416960442393247
156 141 -2.5057544023697204E1
156 144 8.802239718114317
156 150 5.600292049458915E-1
156 153 2.069258650310882E1
156 156 1.000191980424284E2
156 159 4.148775357563052
156 161 -2.0776792511238797
156 163 1.1458229198963437E1
156 217 2.3881356174219547E1
156 223 -7.7748913461497535
157 115 7.833808746268801
157 125 -1.817044819362799
157 142 1.2889976719380254
157 145 -2.1413908867702787E1
157 151 -1.0502634487201146
157 154 4.148775357562853
157 157 1.1124588214912E2
157 164 6.593674318773822
157 189 2.0624849273030065E1
157 214 4.9492640648418185
157 215 6.1300874747987315
158 116 7.833808746268801
158 126 -1.817044819362799
158 143 1.2889976719380254
158 146 -2.1413908867702787E1
158 152 -1.0502634487201146
158 155 4.148775357562853
158 158 1.1124588214912E2
158 162 4.9492640648418185
158 165 6.593674318773822
158 190 2.0624849273030065E1
158 216 6.1300874747987315
159 117 7.833808746268801
159 127 -1.817044819362799
159 144 1.2889976719380254
159 147 -2.1413908867702787E1
159 153 -1.0502634487201146
159 156 4.148775357562853
159 159 1.1124588214912E2
159 163 4.9492640648418185
159 166 6.593674318773822
159 191 2.0624849273030065E1
159 217 6.1300874747987315
160 89 -6.806923085786834
160 134 2.720096631349809
160 137 2.933479282246352
160 140 1.0103296380094825E1
160 143 -9.988795022373347
160 155 -2.0776792511249536
160 160 1.392407112148845E2
160 162 -2.7069888726716844E1
160 208 -2.770098566541194E1
160 211 -1.664214933396231E1
160 222 -2.2390945755641102E1
161 90 -6.806923085786834
161 135 2.720096631349809
161 138 2.933479282246352
161 141 1.0103296380094825E1
161 144 -9.988795022373347
161 156 -2.0776792511249536
161 161 1.392407112148845E2
161 163 -2.7069888726716844E1
161 209 -2.770098566541194E1
161 212 -1.664214933396231E1
161 223 -2.2390945755641102E1
162 116 4.528966483194399E-1
162 134 -1.6028377265314075
162 143 4.9495665158956603E-1
162 155 1.1458229198963622E1
162 158 4.949264064841934
162 160 -2.70698887267183E1
162 162 1.1648992675019835E2
162 180 -1.209955908827439
162 190 -2.9832081320405706E1
162 211 -1.8307312617260212E1
162 216 -6.588388633207556
162 222 4.97451758467928
163 117 4.528966483194399E-1
163 135 -1.6028377265314075
163 144 4.9495665158956603E-1
163 156 1.1458229198963622E1
163 159 4.949264064841934
163 161 -2.70698887267183E1
163 163 1.1648992675019835E2
163 181 -1.209955908827439
163 191 -2.9832081320405706E1
163 212 -1.8307312617260212E1
163 217 -6.588388633207556
163 223 4.97451758467928
164 112 3.7507930209358733
164 118 4.43549943545019
164 125 1.0657399641633077E1
164 145 -1.3612812090390655E1
164 151 1.6207883210333534E1
164 157 6.593674318774447
164 164 6.745025664987082E1
164 215 2.7956153831907216E-1
165 113 3.7507930209358733
165 119 4.43549943545019
165 126 1.0657399641633077E1
165 146 -1.3612812090390655E1
165 152 1.6207883210333534E1
165 158 6.593674318774447
165 165 6.745025664987082E1
165 216 2.7956153831907216E-1
166 114 3.7507930209358733
166 120 4.43549943545019
166 127 1.0657399641633077E1
166 147 -1.3612812090390655E1
166 153 1.6207883210333534E1
166 159 6.593674318774447
166 166 6.745025664987082E1
166 217 2.7956153831907216E-1
167 167 3.981924460710897E1
167 170 -6.909429748329404
167 182 1.3675555632018712E1
167 183 -3.433364202543517E1
167 192 -3.768650636716515E-1
167 218 -6.4968060528261375
167 390 -2.5344009183772656
167 420 -1.1956984254328866E1
168 168 3.981924460710897E1
168 171 -6.909429748329404
168 184 -3.433364202543517E1
168 193 -3.768650636716515E-1
168 219 -6.4968060528261375
168 391 -2.5344009183772656
168 409 1.3675555632018712E1
168 421 -1.1956984254328866E1
169 169 3.981924460710897E1
169 172 -6.909429748329404
169 185 -3.433364202543517E1
169 194 -3.768650636716515E-1
169 220 -6.4968060528261375
169 392 -2.5344009183772656
169 410 1.3675555632018712E1
169 422 -1.1956984254328866E1
170 118 -6.0116951206710425
170 167 -6.9094297483295675
170 170 3.6335256045708E1
170 192 -9.899035099592325
170 198 3.0227041800814374
170 215 1.2650206035316705E1
170 218 -9.845166947546574
171 119 -6.0116951206710425
171 168 -6.9094297483295675
171 171 3.6335256045708E1
171 193 -9.899035099592325
171 199 3.0227041800814374
171 216 1.2650206035316705E1
171 219 -9.845166947546574
172 120 -6.0116951206710425
172 169 -6.9094297483295675
172 172 3.6335256045708E1
172 194 -9.899035099592325
172 200 3.0227041800814374
172 217 1.2650206035316705E1
172 220 -9.845166947546574
173 173 5.0364143524786584E1
173 176 3.587570354579046E-1
173 182 -1.1927963717436638
173 183 -8.609783733881088
173 204 9.569389086803216
173 403 1.031789964297817
173 437 3.955119362174809
174 174 5.0364143524786584E1
174 177 3.587570354579046E-1
174 184 -8.609783733881088
174 205 9.569389086803216
174 404 1.031789964297817
174 409 -1.1927963717436638
174 438 3.955119362174809
175 175 5.0364143524786584E1
175 178 3.587570354579046E-1
175 185 -8.609783733881088
175 206 9.569389086803216
175 405 1.031789964297817
175 410 -1.1927963717436638
175 439 3.955119362174809
176 173 3.5875703545772963E-1
176 176 9.403529369322935E1
176 179 2.7719372118792545
176 183 4.874652518083423
176 186 -2.427568760279705E1
176 204 -1.8260672121114766E1
176 210 -2.7228004627329216
177 174 3.5875703545772963E-1
177 177 9.403529369322935E1
177 180 2.7719372118792545
177 184 4.874652518083423
177 187 -2.427568760279705E1
177 205 -1.8260672121114766E1
177 211 -2.7228004627329216
178 175 3.5875703545772963E-1
178 178 9.403529369322935E1
178 181 2.7719372118792545
178 185 4.874652518083423
178 188 -2.427568760279705E1
178 206 -1.8260672121114766E1
178 212 -2.7228004627329216
179 115 -6.785465401019981E-1
179 176 2.7719372118792784
179 179 4.4067638363713236E1
179 186 4.0565651219313885
179 189 -2.9894809222146833E1
179 210 -4.1803075234217975
179 214 -1.2099559088272933
180 116 -6.785465401019981E-1
180 162 -1.2099559088272933
180 177 2.7719372118792784
180 180 4.4067638363713236E1
180 187 4.0565651219313885
180 190 -2.9894809222146833E1
180 211 -4.1803075234217975
181 117 -6.785465401019981E-1
181 163 -1.2099559088272933
181 178 2.7719372118792784
181 181 4.4067638363713236E1
181 188 4.0565651219313885
181 191 -2.9894809222146833E1
181 212 -4.1803075234217975
182 167 1.367555563201884E1
182 173 -1.1927963717435928
182 182 1.5248833342422856E2
182 183 -1.0302109093387769E2
182 390 -9.644771553916684
182 403 -1.6259674750222405E1
182 406 -1.328141608966888
182 420 -3.187551684022857E1
182 437 -3.693200388369494E1
183 167 -3.4333642025435125E1
183 173 -8.609783733881088
183 176 4.8746525180834235
183 182 -1.0302109093387762E2
183 183 4.8141372001001236E2
183 186 1.5717153870577947
183 192 -4.655330726148891E1
183 204 -1.3229205922978582E2
183 218 -2.6993399136474753E1
183 420 7.762333332018991E1
183 437 -5.0942339301570044E1
184 168 -3.4333642025435125E1
184 174 -8.609783733881088
184 177 4.8746525180834235
184 184 4.8141372001001236E2
184 187 1.5717153870577947
184 193 -4.655330726148891E1
184 205 -1.3229205922978582E2
184 219 -2.6993399136474753E1
184 409 -1.0302109093387762E2
184 421 7.762333332018991E1
184 438 -5.0942339301570044E1
185 169 -3.4333642025435125E1
185 175 -8.609783733881088
185 178 4.8746525180834235
185 185 4.8141372001001236E2
185 188 1.5717153870577947
185 194 -4.655330726148891E1
185 206 -1.3229205922978582E2
185 220 -2.6993399136474753E1
185 410 -1.0302109093387762E2
185 422 7.762333332018991E1
185 439 -5.0942339301570044E1
186 176 -2.4275687602797056E1
186 179 4.056565121931262
186 183 1.5717153870581215
186 186 1.2424542439767032E2
186 189 4.3255573462100094E-1
186 204 -8.90515605251434E-1
186 210 1.6878722679876215
186 215 5.032537332911669
186 218 -1.3858999983479947E1
187 177 -2.4275687602797056E1
187 180 4.056565121931262
187 184 1.5717153870581215
187 187 1.2424542439767032E2
187 190 4.3255573462100094E-1
187 205 -8.90515605251434E-1
187 211 1.6878722679876215
187 216 5.032537332911669
187 219 -1.3858999983479947E1
188 178 -2.4275687602797056E1
188 181 4.056565121931262
188 185 1.5717153870581215
188 188 1.2424542439767032E2
188 191 4.3255573462100094E-1
188 206 -8.90515605251434E-1
188 212 1.6878722679876215
188 217 5.032537332911669
188 220 -1.3858999983479947E1
189 115 7.765267088681882
189 145 1.8422256265928443
189 157 2.062484927302995E1
189 179 -2.989480922214669E1
189 186 4.3255573462052754E-1
189 189 1.1436617384302053E2
189 210 5.213031164864595
189 214 -2.9832081320405894E1
189 215 -4.499779688920285
190 116 7.765267088681882
190 146 1.8422256265928443
190 158 2.062484927302995E1
190 162 -2.9832081320405894E1
190 180 -2.989480922214669E1
190 187 4.3255573462052754E-1
190 190 1.1436617384302053E2
190 211 5.213031164864595
190 216 -4.499779688920285
191 117 7.765267088681882
191 147 1.8422256265928443
191 159 2.062484927302995E1
191 163 -2.9832081320405894E1
191 181 -2.989480922214669E1
191 188 4.3255573462052754E-1
191 191 1.1436617384302053E2
191 212 5.213031164864595
191 217 -4.499779688920285
192 167 -3.768650636717936E-1
192 170 -9.89903509959221
192 183 -4.655330726148949E1
192 192 9.627626194532166E2
192 195 1.0368352672767148E1
192 198 8.06739081217782
192 204 -1.0748618788373474E2
192 207 6.653987300260543E1
192 210 1.100187768740001E2
192 218 1.5479062824211056E1
192 221 -1.6832888907630243E2
192 420 -3.939685644412636E1
192 423 -1.4629382126719884E2
192 437 5.9587500732891634E1
192 440 6.431982270057057E1
193 168 -3.768650636717936E-1
193 171 -9.89903509959221
193 184 -4.655330726148949E1
193 193 9.627626194532166E2
193 196 1.0368352672767148E1
193 199 8.06739081217782
193 205 -1.0748618788373474E2
193 208 6.653987300260543E1
193 211 1.100187768740001E2
193 219 1.5479062824211056E1
193 222 -1.6832888907630243E2
193 421 -3.939685644412636E1
193 424 -1.4629382126719884E2
193 438 5.9587500732891634E1
193 441 6.431982270057057E1
194 169 -3.768650636717936E-1
194 172 -9.89903509959221
194 185 -4.655330726148949E1
194 194 9.627626194532166E2
194 197 1.0368352672767148E1
194 200 8.06739081217782
194 201 -1.4629382126719884E2
194 206 -1.0748618788373474E2
194 209 6.653987300260543E1
194 212 1.100187768740001E2
194 220 1.5479062824211056E1
194 223 -1.6832888907630243E2
194 422 -3.939685644412636E1
194 439 5.9587500732891634E1
194 442 6.431982270057057E1
195 32 5.388893136686988
195 77 3.626689730689627
195 106 -5.560326960425412E1
195 148 6.579247605335738
195 192 1.036835267276657E1
195 195 4.2177043909339955E2
195 198 6.712193170607861
195 207 1.0807765236221815E2
195 221 -1.3748869267864129E2
195 423 3.735913461281994E1
195 425 -5.683190057665519
196 33 5.388893136686988
196 78 3.626689730689627
196 107 -5.560326960425412E1
196 149 6.579247605335738
196 193 1.036835267276657E1
196 196 4.2177043909339955E2
196 199 6.712193170607861
196 202 -5.683190057665519
196 208 1.0807765236221815E2
196 222 -1.3748869267864129E2
196 424 3.735913461281994E1
197 34 5.388893136686988
197 79 3.626689730689627
197 108 -5.560326960425412E1
197 150 6.579247605335738
197 194 1.036835267276657E1
197 197 4.2177043909339955E2
197 200 6.712193170607861
197 201 3.735913461281994E1
197 203 -5.683190057665519
197 209 1.0807765236221815E2
197 223 -1.3748869267864129E2
198 118 8.567377982965745
198 148 5.0869614082315735
198 151 1.9048657876700883E1
198 170 3.022704180081955
198 192 8.067390812178274
198 195 6.712193170607065
198 198 3.0011288613490797E2
198 210 2.7512340682674576
198 215 2.500520415875743E1
198 218 2.2370629930981266E1
198 221 -5.8029060600331505E1
199 119 8.567377982965745
199 149 5.0869614082315735
199 152 1.9048657876700883E1
199 171 3.022704180081955
199 193 8.067390812178274
199 196 6.712193170607065
199 199 3.0011288613490797E2
199 211 2.7512340682674576
199 216 2.500520415875743E1
199 219 2.2370629930981266E1
199 222 -5.8029060600331505E1
200 120 8.567377982965745
200 150 5.0869614082315735
200 153 1.9048657876700883E1
200 172 3.022704180081955
200 194 8.067390812178274
200 197 6.712193170607065
200 200 3.0011288613490797E2
200 212 2.7512340682674576
200 217 2.500520415875743E1
200 220 2.2370629930981266E1
200 223 -5.8029060600331505E1
201 108 -2.3289913986121746E1
201 194 -1.4629382126719884E2
201 197 3.735913461281926E1
201 201 6.920099322564388E2
201 203 -1.497287184172481E1
201 209 9.706223068135571E1
201 413 -2.9020066911761347E1
201 419 1.42115518769073E1
201 422 -2.8281710796392993E1
201 436 -2.510989410818808
201 439 2.9507095564009905E1
201 442 1.672643341667957E1
201 448 -7.746371160073869E1
202 78 1.600939849104611
202 81 2.2956258165874743E-1
202 107 -2.345585278244034E1
202 196 -5.683190057664908
202 202 9.047177626046647E1
202 412 2.2499840197607295
202 424 -1.497287184172643E1
203 79 1.600939849104611
203 82 2.2956258165874743E-1
203 108 -2.345585278244034E1
203 197 -5.683190057664908
203 201 -1.497287184172643E1
203 203 9.047177626046647E1
203 413 2.2499840197607295
204 173 9.569389086803719
204 176 -1.8260672121114307E1
204 183 -1.3229205922978585E2
204 186 -8.905156052509928E-1
204 192 -1.0748618788373474E2
204 204 7.357606202224794E2
204 207 -9.462521103568815E1
204 210 -6.3836640278543655E1
204 218 2.6910654985001244E1
204 221 1.0456361298130174E2
204 437 -5.809804001046833E1
204 440 1.4949320155868719E1
205 174 9.569389086803719
205 177 -1.8260672121114307E1
205 184 -1.3229205922978585E2
205 187 -8.905156052509928E-1
205 193 -1.0748618788373474E2
205 205 7.357606202224794E2
205 208 -9.462521103568815E1
205 211 -6.3836640278543655E1
205 219 2.6910654985001244E1
205 222 1.0456361298130174E2
205 438 -5.809804001046833E1
205 441 1.4949320155868719E1
206 175 9.569389086803719
206 178 -1.8260672121114307E1
206 185 -1.3229205922978585E2
206 188 -8.905156052509928E-1
206 194 -1.0748618788373474E2
206 206 7.357606202224794E2
206 209 -9.462521103568815E1
206 212 -6.3836640278543655E1
206 220 2.6910654985001244E1
206 223 1.0456361298130174E2
206 439 -5.809804001046833E1
206 442 1.4949320155868719E1
207 88 1.2408268587811985E1
207 97 -4.351884759866047
207 106 -4.572473421318159E1
207 192 6.653987300260452E1
207 195 1.0807765236221724E2
207 204 -9.462521103568724E1
207 207 3.783761924473479E2
207 210 2.371320464784948E1
207 213 -2.7700985665412E1
207 221 -1.294096322809477E2
207 423 9.706223068135492E1
207 440 -8.156601896949711
207 443 -9.792190244283715
208 89 1.2408268587811985E1
208 98 -4.351884759866047
208 107 -4.572473421318159E1
208 160 -2.7700985665412E1
208 193 6.653987300260452E1
208 196 1.0807765236221724E2
208 205 -9.462521103568724E1
208 208 3.783761924473479E2
208 211 2.371320464784948E1
208 222 -1.294096322809477E2
208 424 9.706223068135492E1
208 441 -8.156601896949711
208 444 -9.792190244283715
209 90 1.2408268587811985E1
209 99 -4.351884759866047
209 108 -4.572473421318159E1
209 161 -2.7700985665412E1
209 194 6.653987300260452E1
209 197 1.0807765236221724E2
209 201 9.706223068135492E1
209 206 -9.462521103568724E1
209 209 3.783761924473479E2
209 212 2.371320464784948E1
209 223 -1.294096322809477E2
209 442 -8.156601896949711
209 445 -9.792190244283715
210 176 -2.722800462733618
210 179 -4.1803075234218126
210 186 1.6878722679884477
210 189 5.213031164864282
210 192 1.1001877687400054E2
210 198 2.751234068267543
210 204 -6.383664027854343E1
210 207 2.3713204647850418E1
210 210 2.5173392902200482E2
210 213 -1.664214933396236E1
210 214 -1.8307312617260134E1
210 215 -6.9143638391794955
210 218 -2.3949730484989413E1
210 221 -5.2398423759124796E1
211 160 -1.664214933396236E1
211 162 -1.8307312617260134E1
211 177 -2.722800462733618
211 180 -4.1803075234218126
211 187 1.6878722679884477
211 190 5.213031164864282
211 193 1.1001877687400054E2
211 199 2.751234068267543
211 205 -6.383664027854343E1
211 208 2.3713204647850418E1
211 211 2.5173392902200482E2
211 216 -6.9143638391794955
211 219 -2.3949730484989413E1
211 222 -5.2398423759124796E1
212 161 -1.664214933396236E1
212 163 -1.8307312617260134E1
212 178 -2.722800462733618
212 181 -4.1803075234218126
212 188 1.6878722679884477
212 191 5.213031164864282
212 194 1.1001877687400054E2
212 200 2.751234068267543
212 206 -6.383664027854343E1
212 209 2.3713204647850418E1
212 212 2.5173392902200482E2
212 217 -6.9143638391794955
212 220 -2.3949730484989413E1
212 223 -5.2398423759124796E1
213 88 -6.806923085786834
213 133 2.720096631349809
213 136 2.933479282246352
213 139 1.0103296380094825E1
213 142 -9.988795022373347
213 154 -2.0776792511249536
213 207 -2.770098566541194E1
213 210 -1.664214933396231E1
213 213 1.392407112148845E2
213 214 -2.7069888726716844E1
213 221 -2.2390945755641102E1
214 115 4.528966483194399E-1
214 133 -1.6028377265314075
214 142 4.9495665158956603E-1
214 154 1.1458229198963622E1
214 157 4.949264064841934
214 179 -1.209955908827439
214 189 -2.9832081320405706E1
214 210 -1.8307312617260212E1
214 213 -2.70698887267183E1
214 214 1.1648992675019835E2
214 215 -6.588388633207556
214 221 4.97451758467928
215 118 3.319470203217634E-2
215 145 -1.0460899349349084
215 151 1.3667246987166848E1
215 154 2.388135617421993E1
215 157 6.130087474797648
215 164 2.795615383187027E-1
215 170 1.2650206035316698E1
215 186 5.0325373329115415
215 189 -4.499779688921208
215 198 2.500520415875694E1
215 210 -6.914363839178991
215 214 -6.58838863320697
215 215 2.0502520333369444E2
215 218 -8.578697005833183
215 221 2.005638225327847E1
216 119 3.319470203217634E-2
216 146 -1.0460899349349084
216 152 1.3667246987166848E1
216 155 2.388135617421993E1
216 158 6.130087474797648
216 162 -6.58838863320697
216 165 2.795615383187027E-1
216 171 1.2650206035316698E1
216 187 5.0325373329115415
216 190 -4.499779688921208
216 199 2.500520415875694E1
216 211 -6.914363839178991
216 216 2.0502520333369444E2
216 219 -8.578697005833183
216 222 2.005638225327847E1
217 120 3.319470203217634E-2
217 147 -1.0460899349349084
217 153 1.3667246987166848E1
217 156 2.388135617421993E1
217 159 6.130087474797648
217 163 -6.58838863320697
217 166 2.795615383187027E-1
217 172 1.2650206035316698E1
217 188 5.0325373329115415
217 191 -4.499779688921208
217 200 2.500520415875694E1
217 212 -6.914363839178991
217 217 2.0502520333369444E2
217 220 -8.578697005833183
217 223 2.005638225327847E1
218 167 -6.496806052826191
218 170 -9.845166947546403
218 183 -2.699339913647415E1
218 186 -1.385899998348006E1
218 192 1.547906282420935E1
218 198 2.2370629930981977E1
218 204 2.6910654985002175E1
218 210 -2.3949730484989786E1
218 215 -8.578697005834004
218 218 1.6142709765126685E2
219 168 -6.496806052826191
219 171 -9.845166947546403
219 184 -2.699339913647415E1
219 187 -1.385899998348006E1
219 193 1.547906282420935E1
219 199 2.2370629930981977E1
219 205 2.6910654985002175E1
219 211 -2.3949730484989786E1
219 216 -8.578697005834004
219 219 1.6142709765126685E2
220 169 -6.496806052826191
220 172 -9.845166947546403
220 185 -2.699339913647415E1
220 188 -1.385899998348006E1
220 194 1.547906282420935E1
220 200 2.2370629930981977E1
220 206 2.6910654985002175E1
220 212 -2.3949730484989786E1
220 217 -8.578697005834004
220 220 1.6142709765126685E2
221 9 1.2683752199821406E1
221 11 1.5795533700008619E1
221 32 -2.8798172147948904E1
221 40 1.622781076726577E1
221 43 2.6388099455393217E1
221 64 2.371491183203443E1
221 77 5.392293030520112E1
221 88 -5.948316818846057E1
221 97 5.981455808540871E1
221 106 4.2160405926290423E-1
221 109 2.766128869233274E1
221 139 -4.590399168328819
221 148 -4.4032579822598336E1
221 151 -3.656080184521834E1
221 154 -7.7748913461484435
221 192 -1.683288890763026E2
221 195 -1.3748869267864188E2
221 198 -5.802906060033166E1
221 204 1.045636129813011E2
221 207 -1.294096322809463E2
221 210 -5.2398423759122124E1
221 213 -2.239094575564138E1
221 214 4.974517584679703
221 215 2.0056382253279637E1
221 221 7.14476032635375E2
222 12 1.5795533700008619E1
222 33 -2.8798172147948904E1
222 41 1.622781076726577E1
222 44 2.6388099455393217E1
222 48 2.766128869233274E1
222 65 2.371491183203443E1
222 78 5.392293030520112E1
222 89 -5.948316818846057E1
222 98 5.981455808540871E1
222 107 4.2160405926290423E-1
222 128 1.2683752199821406E1
222 140 -4.590399168328819
222 149 -4.4032579822598336E1
222 152 -3.656080184521834E1
222 155 -7.7748913461484435
222 160 -2.239094575564138E1
222 162 4.974517584679703
222 193 -1.683288890763026E2
222 196 -1.3748869267864188E2
222 199 -5.802906060033166E1
222 205 1.045636129813011E2
222 208 -1.294096322809463E2
222 211 -5.2398423759122124E1
222 216 2.0056382253279637E1
222 222 7.14476032635375E2
223 10 1.2683752199821406E1
223 13 1.5795533700008619E1
223 34 -2.8798172147948904E1
223 42 1.622781076726577E1
223 45 2.6388099455393217E1
223 66 2.371491183203443E1
223 79 5.392293030520112E1
223 90 -5.948316818846057E1
223 99 5.981455808540871E1
223 108 4.2160405926290423E-1
223 110 2.766128869233274E1
223 141 -4.590399168328819
223 150 -4.4032579822598336E1
223 153 -3.656080184521834E1
223 156 -7.7748913461484435
223 161 -2.239094575564138E1
223 163 4.974517584679703
223 194 -1.683288890763026E2
223 197 -1.3748869267864188E2
223 200 -5.802906060033166E1
223 206 1.045636129813011E2
223 209 -1.294096322809463E2
223 212 -5.2398423759122124E1
223 217 2.0056382253279637E1
223 223 7.14476032635375E2
224 224 2.0447552039309183E1
224 230 3.618954613031377
224 236 7.190418535270808
224 242 -3.1544518848210146E-1
224 248 -2.7763981194603815E-1
224 254 2.8091494525374117E-1
224 269 -1.822959562103705
224 286 -3.959088810820191
225 225 2.0447552039309183E1
225 231 3.618954613031377
225 237 7.190418535270808
225 243 -3.1544518848210146E-1
225 249 -2.7763981194603815E-1
225 255 2.8091494525374117E-1
225 270 -1.822959562103705
225 287 -3.959088810820191
226 226 2.0447552039309183E1
226 232 3.618954613031377
226 238 7.190418535270808
226 244 -3.1544518848210146E-1
226 250 -2.7763981194603815E-1
226 256 2.8091494525374117E-1
226 271 -1.822959562103705
226 288 -3.959088810820191
227 227 1.7618526389470592E1
227 254 1.4580166876237204
227 257 9.372154796154957
227 263 1.482603279516386
227 298 -3.2102781860658443
227 312 -9.122804891757074
227 320 -1.6431274797136677
227 326 1.446087549388491
228 228 1.7618526389470592E1
228 255 1.4580166876237204
228 258 9.372154796154957
228 264 1.482603279516386
228 299 -3.2102781860658443
228 313 -9.122804891757074
228 321 -1.6431274797136677
228 327 1.446087549388491
229 229 1.7618526389470592E1
229 256 1.4580166876237204
229 259 9.372154796154957
229 265 1.482603279516386
229 300 -3.2102781860658443
229 314 -9.122804891757074
229 322 -1.6431274797136677
229 328 1.446087549388491
230 224 3.6189546130313914
230 230 3.357880941422076E1
230 233 6.084270426097547E-1
230 236 4.455169250185804
230 269 -3.0728963049042875E1
230 272 2.3929518078532936
230 275 -7.822915108300322
231 225 3.6189546130313914
231 231 3.357880941422076E1
231 234 6.084270426097547E-1
231 237 4.455169250185804
231 270 -3.0728963049042875E1
231 273 2.3929518078532936
231 276 -7.822915108300322
232 226 3.6189546130313914
232 232 3.357880941422076E1
232 235 6.084270426097547E-1
232 238 4.455169250185804
232 271 -3.0728963049042875E1
232 274 2.3929518078532936
232 277 -7.822915108300322
233 230 6.084270426098115E-1
233 233 8.309196894351692E1
233 272 -7.949285585130724
233 275 2.0147773736793425E1
233 390 2.0416974212645357E1
233 406 -2.1639508595329403E1
233 414 -6.166929290917321
234 231 6.084270426098115E-1
234 234 8.309196894351692E1
234 273 -7.949285585130724
234 276 2.0147773736793425E1
234 391 2.0416974212645357E1
234 407 -2.1639508595329403E1
234 415 -6.166929290917321
235 232 6.084270426098115E-1
235 235 8.309196894351692E1
235 274 -7.949285585130724
235 277 2.0147773736793425E1
235 392 2.0416974212645357E1
235 408 -2.1639508595329403E1
235 416 -6.166929290917321
236 224 7.1904185352707515
236 230 4.455169250185804
236 236 3.327117630277087E2
236 239 2.102467904894624
236 242 -2.1859070303416104
236 248 1.7328655969573106
236 269 -3.1861364818779833E1
236 275 -4.6996983673507906E1
236 280 1.0317130804321145E1
236 283 3.467567262595587E1
236 286 1.5570588854045127E1
236 292 3.7800785797897305
236 301 -6.753153886921538E1
237 225 7.1904185352707515
237 231 4.455169250185804
237 237 3.327117630277087E2
237 240 2.102467904894624
237 243 -2.1859070303416104
237 249 1.7328655969573106
237 270 -3.1861364818779833E1
237 276 -4.6996983673507906E1
237 281 1.0317130804321145E1
237 284 3.467567262595587E1
237 287 1.5570588854045127E1
237 293 3.7800785797897305
237 302 -6.753153886921538E1
238 226 7.1904185352707515
238 232 4.455169250185804
238 238 3.327117630277087E2
238 241 2.102467904894624
238 244 -2.1859070303416104
238 250 1.7328655969573106
238 271 -3.1861364818779833E1
238 277 -4.6996983673507906E1
238 282 1.0317130804321145E1
238 285 3.467567262595587E1
238 288 1.5570588854045127E1
238 294 3.7800785797897305
238 303 -6.753153886921538E1
239 236 2.102467904894688
239 239 5.790742235332598E1
239 275 4.455372113665646
239 280 7.189136748661042
239 301 -1.7063066247495044E1
239 334 3.0746625622407606
239 345 -6.67803569559878
239 414 -1.5787725697313832E1
240 237 2.102467904894688
240 240 5.790742235332598E1
240 276 4.455372113665646
240 278 3.0746625622407606
240 281 7.189136748661042
240 302 -1.7063066247495044E1
240 393 -6.67803569559878
240 415 -1.5787725697313832E1
241 238 2.102467904894688
241 241 5.790742235332598E1
241 277 4.455372113665646
241 279 3.0746625622407606
241 282 7.189136748661042
241 303 -1.7063066247495044E1
241 346 -6.67803569559878
241 416 -1.5787725697313832E1
242 224 -3.154451884820446E-1
242 236 -2.1859070303416104
242 242 3.8803968882625895E1
242 245 -9.272200532366526E-2
242 248 -2.9185942561021875E1
242 251 -7.751889896695644
242 280 3.4708645695898497
243 225 -3.154451884820446E-1
243 237 -2.1859070303416104
243 243 3.8803968882625895E1
243 246 -9.272200532366526E-2
243 249 -2.9185942561021875E1
243 252 -7.751889896695644
243 281 3.4708645695898497
244 226 -3.154451884820446E-1
244 238 -2.1859070303416104
244 244 3.8803968882625895E1
244 247 -9.272200532366526E-2
244 250 -2.9185942561021875E1
244 253 -7.751889896695644
244 282 3.4708645695898497
245 242 -9.272200532369368E-2
245 245 2.7511700636456567E1
245 251 -2.4159901318201435E1
245 280 1.6015360077919638
245 304 -3.6055557898239954
245 323 -6.212776215531619E-1
245 334 -6.2995460684280005
246 243 -9.272200532369368E-2
246 246 2.7511700636456567E1
246 252 -2.4159901318201435E1
246 278 -6.2995460684280005
246 281 1.6015360077919638
246 305 -3.6055557898239954
246 324 -6.212776215531619E-1
247 244 -9.272200532369368E-2
247 247 2.7511700636456567E1
247 253 -2.4159901318201435E1
247 279 -6.2995460684280005
247 282 1.6015360077919638
247 306 -3.6055557898239954
247 325 -6.212776215531619E-1
248 224 -2.776398119464645E-1
248 236 1.7328655969572822
248 242 -2.9185942561022102E1
248 248 4.253058272872045E1
248 251 3.8319941411621414
248 280 3.0820164452975547
248 283 6.671854572567213E-1
248 286 -3.7091394737115166
249 225 -2.776398119464645E-1
249 237 1.7328655969572822
249 243 -2.9185942561022102E1
249 249 4.253058272872045E1
249 252 3.8319941411621414
249 281 3.0820164452975547
249 284 6.671854572567213E-1
249 287 -3.7091394737115166
250 226 -2.776398119464645E-1
250 238 1.7328655969572822
250 244 -2.9185942561022102E1
250 250 4.253058272872045E1
250 253 3.8319941411621414
250 282 3.0820164452975547
250 285 6.671854572567213E-1
250 288 -3.7091394737115166
251 242 -7.751889896695701
251 245 -2.4159901318200752E1
251 248 3.8319941411620277
251 251 1.2930785216757266E2
251 280 6.670844322064589
251 283 1.6559765034152036
251 301 -2.3453620713890547E1
251 323 2.0451081472116215
251 334 2.492040545109439E1
251 335 1.266647630575639E1
252 243 -7.751889896695701
252 246 -2.4159901318200752E1
252 249 3.8319941411620277
252 252 1.2930785216757266E2
252 278 2.492040545109439E1
252 281 6.670844322064589
252 284 1.6559765034152036
252 302 -2.3453620713890547E1
252 324 2.0451081472116215
252 336 1.266647630575639E1
253 244 -7.751889896695701
253 247 -2.4159901318200752E1
253 250 3.8319941411620277
253 253 1.2930785216757266E2
253 279 2.492040545109439E1
253 282 6.670844322064589
253 285 1.6559765034152036
253 303 -2.3453620713890547E1
253 325 2.0451081472116215
253 337 1.266647630575639E1
254 224 2.809149452537696E-1
254 227 1.4580166876236689
254 254 6.874458921578457E1
254 269 4.037008390717183
254 286 -4.883397381951293
254 292 5.918317625992138
254 298 -1.7657400122724848E1
254 312 -3.576267722264699
255 225 2.809149452537696E-1
255 228 1.4580166876236689
255 255 6.874458921578457E1
255 270 4.037008390717183
255 287 -4.883397381951293
255 293 5.918317625992138
255 299 -1.7657400122724848E1
255 313 -3.576267722264699
256 226 2.809149452537696E-1
256 229 1.4580166876236689
256 256 6.874458921578457E1
256 271 4.037008390717183
256 288 -4.883397381951293
256 294 5.918317625992138
256 300 -1.7657400122724848E1
256 314 -3.576267722264699
257 227 9.37215479615493
257 257 3.310187485867137E2
257 260 -5.042290433066517
257 263 -2.6528792243112854E1
257 283 1.9609119968717817E1
257 286 -8.805997874909733E1
257 289 -9.047564535043298
257 292 6.064478024486288E-1
257 298 -1.8783819275836375E1
257 301 4.2560187761407704E1
257 312 -2.4283197667209937E1
257 320 -7.068197715294248
257 326 3.430156518269304
257 342 -5.222505217943414E1
258 228 9.37215479615493
258 258 3.310187485867137E2
258 261 -5.042290433066517
258 264 -2.6528792243112854E1
258 284 1.9609119968717817E1
258 287 -8.805997874909733E1
258 290 -9.047564535043298
258 293 6.064478024486288E-1
258 299 -1.8783819275836375E1
258 302 4.2560187761407704E1
258 313 -2.4283197667209937E1
258 321 -7.068197715294248
258 327 3.430156518269304
258 343 -5.222505217943414E1
259 229 9.37215479615493
259 259 3.310187485867137E2
259 262 -5.042290433066517
259 265 -2.6528792243112854E1
259 285 1.9609119968717817E1
259 288 -8.805997874909733E1
259 291 -9.047564535043298
259 294 6.064478024486288E-1
259 300 -1.8783819275836375E1
259 303 4.2560187761407704E1
259 314 -2.4283197667209937E1
259 322 -7.068197715294248
259 328 3.430156518269304
259 344 -5.222505217943414E1
260 257 -5.04229043306624
260 260 1.1476177961355292E2
260 289 -2.576290986479424E1
260 301 -4.302139377568902E1
260 340 -2.321742834615799E1
260 342 -1.049165903270573E1
260 399 3.2289700972029007
260 431 -5.2017113397995466E1
261 258 -5.04229043306624
261 261 1.1476177961355292E2
261 290 -2.576290986479424E1
261 302 -4.302139377568902E1
261 343 -1.049165903270573E1
261 371 -2.321742834615799E1
261 400 3.2289700972029007
261 432 -5.2017113397995466E1
262 259 -5.04229043306624
262 262 1.1476177961355292E2
262 291 -2.576290986479424E1
262 303 -4.302139377568902E1
262 341 -2.321742834615799E1
262 344 -1.049165903270573E1
262 356 3.2289700972029007
262 433 -5.2017113397995466E1
263 227 1.4826032795164314
263 257 -2.652879224311239E1
263 263 6.753538430675586E1
263 266 1.1461327118520337E-1
263 289 8.351669884689897E-1
263 292 8.741459384514538E-3
263 298 -4.42443974096795
264 228 1.4826032795164314
264 258 -2.652879224311239E1
264 264 6.753538430675586E1
264 267 1.1461327118520337E-1
264 290 8.351669884689897E-1
264 293 8.741459384514538E-3
264 299 -4.42443974096795
265 229 1.4826032795164314
265 259 -2.652879224311239E1
265 265 6.753538430675586E1
265 268 1.1461327118520337E-1
265 291 8.351669884689897E-1
265 294 8.741459384514538E-3
265 300 -4.42443974096795
266 263 1.1461327118521936E-1
266 266 4.2581629847920645E1
266 289 -9.809388003302702
266 292 9.823241016759185
266 295 -1.2101641524397627E1
266 403 -5.605924995898095
266 431 -1.882804680417056
267 264 1.1461327118521936E-1
267 267 4.2581629847920645E1
267 290 -9.809388003302702
267 293 9.823241016759185
267 296 -1.2101641524397627E1
267 404 -5.605924995898095
267 432 -1.882804680417056
268 265 1.1461327118521936E-1
268 268 4.2581629847920645E1
268 291 -9.809388003302702
268 294 9.823241016759185
268 297 -1.2101641524397627E1
268 405 -5.605924995898095
268 433 -1.882804680417056
269 224 -1.8229595621034491
269 230 -3.072896304904299E1
269 236 -3.1861364818779833E1
269 254 4.03700839071702
269 269 6.921888033000583E1
269 272 -4.327704259498269
269 275 9.025102289667188
269 286 1.716301402958764E1
269 292 -1.5850435745416334E1
270 225 -1.8229595621034491
270 231 -3.072896304904299E1
270 237 -3.1861364818779833E1
270 255 4.03700839071702
270 270 6.921888033000583E1
270 273 -4.327704259498269
270 276 9.025102289667188
270 287 1.716301402958764E1
270 293 -1.5850435745416334E1
271 226 -1.8229595621034491
271 232 -3.072896304904299E1
271 238 -3.1861364818779833E1
271 256 4.03700839071702
271 271 6.921888033000583E1
271 274 -4.327704259498269
271 277 9.025102289667188
271 288 1.716301402958764E1
271 294 -1.5850435745416334E1
272 230 2.3929518078531657
272 233 -7.949285585130724
272 269 -4.327704259498397
272 272 1.7511115721349645E2
272 275 -3.4067286875925504E1
272 292 -6.4742880660968165
272 295 -8.317798149598434E1
272 406 2.7664982906165648E1
272 414 3.3454473112860796
273 231 2.3929518078531657
273 234 -7.949285585130724
273 270 -4.327704259498397
273 273 1.7511115721349645E2
273 276 -3.4067286875925504E1
273 293 -6.4742880660968165
273 296 -8.317798149598434E1
273 407 2.7664982906165648E1
273 415 3.3454473112860796
274 232 2.3929518078531657
274 235 -7.949285585130724
274 271 -4.327704259498397
274 274 1.7511115721349645E2
274 277 -3.4067286875925504E1
274 294 -6.4742880660968165
274 297 -8.317798149598434E1
274 408 2.7664982906165648E1
274 416 3.3454473112860796
275 230 -7.822915108300322
275 233 2.014777373679334E1
275 236 -4.699698367350805E1
275 239 4.455372113664396
275 269 9.025102289667188
275 272 -3.4067286875926285E1
275 275 1.973126630161142E2
275 292 6.685644051771305
275 295 -2.5249911035280498E1
275 301 8.398817427691895
275 414 -5.855347784565102E1
276 231 -7.822915108300322
276 234 2.014777373679334E1
276 237 -4.699698367350805E1
276 240 4.455372113664396
276 270 9.025102289667188
276 273 -3.4067286875926285E1
276 276 1.973126630161142E2
276 293 6.685644051771305
276 296 -2.5249911035280498E1
276 302 8.398817427691895
276 415 -5.855347784565102E1
277 232 -7.822915108300322
277 235 2.014777373679334E1
277 238 -4.699698367350805E1
277 241 4.455372113664396
277 271 9.025102289667188
277 274 -3.4067286875926285E1
277 277 1.973126630161142E2
277 294 6.685644051771305
277 297 -2.5249911035280498E1
277 303 8.398817427691895
277 416 -5.855347784565102E1
278 240 3.0746625622404196
278 246 -6.299546068428128
278 252 2.4920405451094787E1
278 278 1.4477655421735534E2
278 281 6.533952135407141
278 302 -5.63813709677509
278 305 -2.5981364838673784
278 324 -2.2972867587884296
278 336 2.6612677148133915E1
278 362 6.455609943046422
278 385 -1.5856307474347972E1
278 393 1.6572469122404623E1
278 488 1.3938481799648947
279 241 3.0746625622404196
279 247 -6.299546068428128
279 253 2.4920405451094787E1
279 279 1.4477655421735534E2
279 282 6.533952135407141
279 303 -5.63813709677509
279 306 -2.5981364838673784
279 325 -2.2972867587884296
279 337 2.6612677148133915E1
279 346 1.6572469122404623E1
279 363 6.455609943046422
279 386 -1.5856307474347972E1
279 489 1.3938481799648947
280 236 1.0317130804321827E1
280 239 7.189136748661042
280 242 3.470864569589878
280 245 1.6015360077917933
280 248 3.0820164452976258
280 251 6.6708443220646885
280 280 7.445282440348798E1
280 283 9.219853992928748
280 301 -9.913681437311837
280 334 6.533952135407084
281 237 1.0317130804321827E1
281 240 7.189136748661042
281 243 3.470864569589878
281 246 1.6015360077917933
281 249 3.0820164452976258
281 252 6.6708443220646885
281 278 6.533952135407084
281 281 7.445282440348798E1
281 284 9.219853992928748
281 302 -9.913681437311837
282 238 1.0317130804321827E1
282 241 7.189136748661042
282 244 3.470864569589878
282 247 1.6015360077917933
282 250 3.0820164452976258
282 253 6.6708443220646885
282 279 6.533952135407084
282 282 7.445282440348798E1
282 285 9.219853992928748
282 303 -9.913681437311837
283 236 3.46756726259559E1
283 248 6.671854572565366E-1
283 251 1.655976503415161
283 257 1.9609119968717703E1
283 280 9.219853992928833
283 283 1.9379346802323278E2
283 286 -4.1012368495302056E1
283 301 -3.553257646121068E1
283 309 -3.214037513716096E1
283 312 -6.956818911985833
283 335 2.1750307603736843E1
283 342 -6.096891745301807
284 237 3.46756726259559E1
284 249 6.671854572565366E-1
284 252 1.655976503415161
284 258 1.9609119968717703E1
284 281 9.219853992928833
284 284 1.9379346802323278E2
284 287 -4.1012368495302056E1
284 302 -3.553257646121068E1
284 310 -3.214037513716096E1
284 313 -6.956818911985833
284 336 2.1750307603736843E1
284 343 -6.096891745301807
285 238 3.46756726259559E1
285 250 6.671854572565366E-1
285 253 1.655976503415161
285 259 1.9609119968717703E1
285 282 9.219853992928833
285 285 1.9379346802323278E2
285 288 -4.1012368495302056E1
285 303 -3.553257646121068E1
285 311 -3.214037513716096E1
285 314 -6.956818911985833
285 337 2.1750307603736843E1
285 344 -6.096891745301807
286 224 -3.9590888108201625
286 236 1.5570588854044782E1
286 248 -3.709139473711332
286 254 -4.883397381951287
286 257 -8.805997874909755E1
286 269 1.7163014029587224E1
286 283 -4.101236849530031E1
286 286 3.885860153228989E2
286 292 3.819472235438207E1
286 298 -2.651077346088017
286 301 2.425542065117611E1
286 312 -5.6610918889209225
287 225 -3.9590888108201625
287 237 1.5570588854044782E1
287 249 -3.709139473711332
287 255 -4.883397381951287
287 258 -8.805997874909755E1
287 270 1.7163014029587224E1
287 284 -4.101236849530031E1
287 287 3.885860153228989E2
287 293 3.819472235438207E1
287 299 -2.651077346088017
287 302 2.425542065117611E1
287 313 -5.6610918889209225
288 226 -3.9590888108201625
288 238 1.5570588854044782E1
288 250 -3.709139473711332
288 256 -4.883397381951287
288 259 -8.805997874909755E1
288 271 1.7163014029587224E1
288 285 -4.101236849530031E1
288 288 3.885860153228989E2
288 294 3.819472235438207E1
288 300 -2.651077346088017
288 303 2.425542065117611E1
288 314 -5.6610918889209225
289 257 -9.047564535043414
289 260 -2.5762909864793755E1
289 263 8.35166988469051E-1
289 266 -9.809388003302667
289 289 1.0656587883548808E2
289 292 2.815345784310258E1
289 295 -3.996310961992774E1
289 301 4.011781877147125E1
289 431 1.908558170676591E1
290 258 -9.047564535043414
290 261 -2.5762909864793755E1
290 264 8.35166988469051E-1
290 267 -9.809388003302667
290 290 1.0656587883548808E2
290 293 2.815345784310258E1
290 296 -3.996310961992774E1
290 302 4.011781877147125E1
290 432 1.908558170676591E1
291 259 -9.047564535043414
291 262 -2.5762909864793755E1
291 265 8.35166988469051E-1
291 268 -9.809388003302667
291 291 1.0656587883548808E2
291 294 2.815345784310258E1
291 297 -3.996310961992774E1
291 303 4.011781877147125E1
291 433 1.908558170676591E1
292 236 3.780078579789638
292 254 5.9183176259920245
292 257 6.064478024486915E-1
292 263 8.741459384407957E-3
292 266 9.823241016759534
292 269 -1.5850435745416846E1
292 272 -6.474288066096731
292 275 6.68564405177144
292 286 3.819472235438214E1
292 289 2.815345784310236E1
292 292 2.5271704454140968E2
292 295 -1.0248528279721334E2
292 298 -2.006831444568757E1
292 301 7.792240637250038E1
293 237 3.780078579789638
293 255 5.9183176259920245
293 258 6.064478024486915E-1
293 264 8.741459384407957E-3
293 267 9.823241016759534
293 270 -1.5850435745416846E1
293 273 -6.474288066096731
293 276 6.68564405177144
293 287 3.819472235438214E1
293 290 2.815345784310236E1
293 293 2.5271704454140968E2
293 296 -1.0248528279721334E2
293 299 -2.006831444568757E1
293 302 7.792240637250038E1
294 238 3.780078579789638
294 256 5.9183176259920245
294 259 6.064478024486915E-1
294 265 8.741459384407957E-3
294 268 9.823241016759534
294 271 -1.5850435745416846E1
294 274 -6.474288066096731
294 277 6.68564405177144
294 288 3.819472235438214E1
294 291 2.815345784310236E1
294 294 2.5271704454140968E2
294 297 -1.0248528279721334E2
294 300 -2.006831444568757E1
294 303 7.792240637250038E1
295 266 -1.2101641524397285E1
295 272 -8.31779814959848E1
295 275 -2.5249911035281002E1
295 289 -3.9963109619927735E1
295 292 -1.0248528279721333E2
295 295 4.4211999440107064E2
295 301 -6.481823252045483E1
295 403 7.555156787475426E-5
295 406 -2.91751503631791E1
295 414 7.901838300322538E1
295 431 2.9908712082536656E1
296 267 -1.2101641524397285E1
296 273 -8.31779814959848E1
296 276 -2.5249911035281002E1
296 290 -3.9963109619927735E1
296 293 -1.0248528279721333E2
296 296 4.4211999440107064E2
296 302 -6.481823252045483E1
296 404 7.555156787475426E-5
296 407 -2.91751503631791E1
296 415 7.901838300322538E1
296 432 2.9908712082536656E1
297 268 -1.2101641524397285E1
297 274 -8.31779814959848E1
297 277 -2.5249911035281002E1
297 291 -3.9963109619927735E1
297 294 -1.0248528279721333E2
297 297 4.4211999440107064E2
297 303 -6.481823252045483E1
297 405 7.555156787475426E-5
297 408 -2.91751503631791E1
297 416 7.901838300322538E1
297 433 2.9908712082536656E1
298 227 -3.2102781860658727
298 254 -1.7657400122724415E1
298 257 -1.8783819275836144E1
298 263 -4.424439740967973
298 286 -2.651077346087841
298 292 -2.0068314445687843E1
298 298 1.0457189343034835E2
298 312 -7.890375521092628
299 228 -3.2102781860658727
299 255 -1.7657400122724415E1
299 258 -1.8783819275836144E1
299 264 -4.424439740967973
299 287 -2.651077346087841
299 293 -2.0068314445687843E1
299 299 1.0457189343034835E2
299 313 -7.890375521092628
300 229 -3.2102781860658727
300 256 -1.7657400122724415E1
300 259 -1.8783819275836144E1
300 265 -4.424439740967973
300 288 -2.651077346087841
300 294 -2.0068314445687843E1
300 300 1.0457189343034835E2
300 314 -7.890375521092628
301 236 -6.753153886921544E1
301 239 -1.706306624749503E1
301 251 -2.3453620713889922E1
301 257 4.256018776140773E1
301 260 -4.302139377568896E1
301 275 8.398817427691682
301 280 -9.91368143731269
301 283 -3.553257646121122E1
301 286 2.425542065117571E1
301 289 4.011781877147112E1
301 292 7.792240637250048E1
301 295 -6.48182325204549E1
301 301 5.581883888635602E2
301 307 1.5571648976920494E1
301 309 1.6691444378036593
301 334 -5.638137096775033
301 335 -4.2509462856430275E1
301 340 1.780052394756704E1
301 342 -3.846145966927399E1
301 345 2.188008090741721E1
301 384 -2.1453402515056574E1
301 387 6.3881519819159166E1
301 399 3.86131481527773E1
301 414 -1.7149512213512608E1
301 431 1.888632766586743E1
302 237 -6.753153886921544E1
302 240 -1.706306624749503E1
302 252 -2.3453620713889922E1
302 258 4.256018776140773E1
302 261 -4.302139377568896E1
302 276 8.398817427691682
302 278 -5.638137096775033
302 281 -9.91368143731269
302 284 -3.553257646121122E1
302 287 2.425542065117571E1
302 290 4.011781877147112E1
302 293 7.792240637250048E1
302 296 -6.48182325204549E1
302 302 5.581883888635602E2
302 310 1.6691444378036593
302 336 -4.2509462856430275E1
302 343 -3.846145966927399E1
302 350 1.5571648976920494E1
302 371 1.780052394756704E1
302 385 -2.1453402515056574E1
302 388 6.3881519819159166E1
302 393 2.188008090741721E1
302 400 3.86131481527773E1
302 415 -1.7149512213512608E1
302 432 1.888632766586743E1
303 238 -6.753153886921544E1
303 241 -1.706306624749503E1
303 253 -2.3453620713889922E1
303 259 4.256018776140773E1
303 262 -4.302139377568896E1
303 277 8.398817427691682
303 279 -5.638137096775033
303 282 -9.91368143731269
303 285 -3.553257646121122E1
303 288 2.425542065117571E1
303 291 4.011781877147112E1
303 294 7.792240637250048E1
303 297 -6.48182325204549E1
303 303 5.581883888635602E2
303 308 1.5571648976920494E1
303 311 1.6691444378036593
303 337 -4.2509462856430275E1
303 341 1.780052394756704E1
303 344 -3.846145966927399E1
303 346 2.188008090741721E1
303 356 3.86131481527773E1
303 386 -2.1453402515056574E1
303 389 6.3881519819159166E1
303 416 -1.7149512213512608E1
303 433 1.888632766586743E1
304 245 -3.6055557898238817
304 304 2.392326640215066E1
304 323 3.0119104004853625E-1
304 334 -2.598136483867492
304 449 -7.247515028961374
304 467 -3.823947216762406
304 487 5.169550395360503E-1
305 246 -3.6055557898238817
305 278 -2.598136483867492
305 305 2.392326640215066E1
305 324 3.0119104004853625E-1
305 450 -7.247515028961374
305 468 -3.823947216762406
305 488 5.169550395360503E-1
306 247 -3.6055557898238817
306 279 -2.598136483867492
306 306 2.392326640215066E1
306 325 3.0119104004853625E-1
306 451 -7.247515028961374
306 469 -3.823947216762406
306 489 5.169550395360503E-1
307 301 1.557164897692057E1
307 307 3.89925769255815E2
307 309 4.949469834933803
307 315 -2.046171307515499E2
307 335 7.207596624668895E-1
307 340 -4.2468101899257036E1
307 347 -2.512572021711336
307 351 -3.5170701001505215E1
307 367 -5.852885725206448
307 375 2.9481756192887154E1
307 384 3.26928535536215E1
308 303 1.557164897692057E1
308 308 3.89925769255815E2
308 311 4.949469834933803
308 316 -2.046171307515499E2
308 337 7.207596624668895E-1
308 339 -5.852885725206448
308 341 -4.2468101899257036E1
308 349 -2.512572021711336
308 353 -3.5170701001505215E1
308 377 2.9481756192887154E1
308 386 3.26928535536215E1
309 283 -3.21403751371607E1
309 301 1.669144437803591
309 307 4.949469834933548
309 309 3.050310672071123E2
309 312 9.817164830539618
309 315 -6.609701743718982
309 317 -1.9661957851031704E2
309 335 -1.3464708846407447E1
309 340 1.5047713051079263E1
309 342 -1.1677496967873063E1
310 284 -3.21403751371607E1
310 302 1.669144437803591
310 310 3.050310672071123E2
310 313 9.817164830539618
310 318 -1.9661957851031704E2
310 336 -1.3464708846407447E1
310 343 -1.1677496967873063E1
310 350 4.949469834933548
310 354 -6.609701743718982
310 371 1.5047713051079263E1
311 285 -3.21403751371607E1
311 303 1.669144437803591
311 308 4.949469834933548
311 311 3.050310672071123E2
311 314 9.817164830539618
311 316 -6.609701743718982
311 319 -1.9661957851031704E2
311 337 -1.3464708846407447E1
311 341 1.5047713051079263E1
311 344 -1.1677496967873063E1
312 227 -9.122804891757044
312 254 -3.5762677222648245
312 257 -2.428319766720995E1
312 283 -6.956818911985847
312 286 -5.661091888920809
312 298 -7.890375521092543
312 309 9.817164830539506
312 312 3.364304714967097E2
312 317 -1.9103816635172823E1
312 320 -3.001450319038149E2
312 342 -1.6803570783221715
313 228 -9.122804891757044
313 255 -3.5762677222648245
313 258 -2.428319766720995E1
313 284 -6.956818911985847
313 287 -5.661091888920809
313 299 -7.890375521092543
313 310 9.817164830539506
313 313 3.364304714967097E2
313 318 -1.9103816635172823E1
313 321 -3.001450319038149E2
313 343 -1.6803570783221715
314 229 -9.122804891757044
314 256 -3.5762677222648245
314 259 -2.428319766720995E1
314 285 -6.956818911985847
314 288 -5.661091888920809
314 300 -7.890375521092543
314 311 9.817164830539506
314 314 3.364304714967097E2
314 319 -1.9103816635172823E1
314 322 -3.001450319038149E2
314 344 -1.6803570783221715
315 307 -2.0461713075154987E2
315 309 -6.609701743718882
315 315 2.4683339458338548E2
315 317 6.701124187210271
315 329 -5.0980397804812805
315 332 -3.91573885803432E1
315 340 1.1836408604776198E1
315 351 3.310733634418532E1
315 375 -9.432177579801717E-1
316 308 -2.0461713075154987E2
316 311 -6.609701743718882
316 316 2.4683339458338548E2
316 319 6.701124187210271
316 331 -5.0980397804812805
316 333 -3.91573885803432E1
316 341 1.1836408604776198E1
316 353 3.310733634418532E1
316 377 -9.432177579801717E-1
317 309 -1.9661957851031698E2
317 312 -1.910381663517276E1
317 315 6.701124187210222
317 317 1.9954209261020284E2
317 320 1.4461898485553988E1
317 326 -2.7649098605921427
317 329 -1.1413283994550316E1
317 340 -4.941913092679499
317 342 -7.734857379205364
318 310 -1.9661957851031698E2
318 313 -1.910381663517276E1
318 318 1.9954209261020284E2
318 321 1.4461898485553988E1
318 327 -2.7649098605921427
318 330 -1.1413283994550316E1
318 343 -7.734857379205364
318 354 6.701124187210222
318 371 -4.941913092679499
319 311 -1.9661957851031698E2
319 314 -1.910381663517276E1
319 316 6.701124187210222
319 319 1.9954209261020284E2
319 322 1.4461898485553988E1
319 328 -2.7649098605921427
319 331 -1.1413283994550316E1
319 341 -4.941913092679499
319 344 -7.734857379205364
320 227 -1.6431274797136677
320 257 -7.0681977152942554
320 312 -3.001450319038148E2
320 317 1.4461898485553851E1
320 320 3.549520593653798E2
320 326 -3.7794013894126195E1
320 342 2.9827280138472188
321 228 -1.6431274797136677
321 258 -7.0681977152942554
321 313 -3.001450319038148E2
321 318 1.4461898485553851E1
321 321 3.549520593653798E2
321 327 -3.7794013894126195E1
321 343 2.9827280138472188
322 229 -1.6431274797136677
322 259 -7.0681977152942554
322 314 -3.001450319038148E2
322 319 1.4461898485553851E1
322 322 3.549520593653798E2
322 328 -3.7794013894126195E1
322 344 2.9827280138472188
323 245 -6.212776215531619E-1
323 251 2.045108147211849
323 304 3.0119104004853625E-1
323 323 1.3774474766069955E2
323 334 -2.2972867587881463
323 335 3.1630723102350515
323 367 -1.6862502311802018E1
323 384 2.0317401640286064E1
323 467 4.315567250274469
323 487 2.5029115359021976E1
324 246 -6.212776215531619E-1
324 252 2.045108147211849
324 278 -2.2972867587881463
324 305 3.0119104004853625E-1
324 324 1.3774474766069955E2
324 336 3.1630723102350515
324 338 -1.6862502311802018E1
324 385 2.0317401640286064E1
324 468 4.315567250274469
324 488 2.5029115359021976E1
325 247 -6.212776215531619E-1
325 253 2.045108147211849
325 279 -2.2972867587881463
325 306 3.0119104004853625E-1
325 325 1.3774474766069955E2
325 337 3.1630723102350515
325 339 -1.6862502311802018E1
325 386 2.0317401640286064E1
325 469 4.315567250274469
325 489 2.5029115359021976E1
326 227 1.4460875493884404
326 257 3.4301565182692912
326 317 -2.7649098605920717
326 320 -3.779401389412621E1
326 326 4.014860142096499E1
326 329 1.4586380399929832
326 342 -7.994689011205292E-2
327 228 1.4460875493884404
327 258 3.4301565182692912
327 318 -2.7649098605920717
327 321 -3.779401389412621E1
327 327 4.014860142096499E1
327 330 1.4586380399929832
327 343 -7.994689011205292E-2
328 229 1.4460875493884404
328 259 3.4301565182692912
328 319 -2.7649098605920717
328 322 -3.779401389412621E1
328 328 4.014860142096499E1
328 331 1.4586380399929832
328 344 -7.994689011205292E-2
329 315 -5.098039780481282
329 317 -1.1413283994550373E1
329 326 1.458638039993053
329 329 2.082818033944414E1
329 332 4.750835288701287
329 340 -1.9338447286693956
329 342 1.6503574517131048E-1
330 318 -1.1413283994550373E1
330 327 1.458638039993053
330 330 2.082818033944414E1
330 343 1.6503574517131048E-1
330 354 -5.098039780481282
330 355 4.750835288701287
330 371 -1.9338447286693956
331 316 -5.098039780481282
331 319 -1.1413283994550373E1
331 328 1.458638039993053
331 331 2.082818033944414E1
331 333 4.750835288701287
331 341 -1.9338447286693956
331 344 1.6503574517131048E-1
332 315 -3.915738858034322E1
332 329 4.7508352887012055
332 332 6.429755947077192E1
332 340 -9.37225513390932
332 351 -1.5067628599470975E1
332 375 -8.589124589817336
332 476 3.991147012439312
333 316 -3.915738858034322E1
333 331 4.7508352887012055
333 333 6.429755947077192E1
333 341 -9.37225513390932
333 353 -1.5067628599470975E1
333 377 -8.589124589817336
333 478 3.991147012439312
334 239 3.0746625622404196
334 245 -6.299546068428128
334 251 2.4920405451094787E1
334 280 6.533952135407141
334 301 -5.63813709677509
334 304 -2.5981364838673784
334 323 -2.2972867587884296
334 334 1.4477655421735534E2
334 335 2.6612677148133915E1
334 345 1.6572469122404623E1
334 361 6.455609943046422
334 384 -1.5856307474347972E1
334 487 1.3938481799648947
335 251 1.2666476305756134E1
335 283 2.1750307603738264E1
335 301 -4.250946285642931E1
335 307 7.207596624669463E-1
335 309 -1.346470884640754E1
335 323 3.16307231023346
335 334 2.661267714813408E1
335 335 1.1349459997597305E2
335 367 1.7149965725072462
335 384 2.8388018487698183E1
336 252 1.2666476305756134E1
336 278 2.661267714813408E1
336 284 2.1750307603738264E1
336 302 -4.250946285642931E1
336 310 -1.346470884640754E1
336 324 3.16307231023346
336 336 1.1349459997597305E2
336 338 1.7149965725072462
336 350 7.207596624669463E-1
336 385 2.8388018487698183E1
337 253 1.2666476305756134E1
337 279 2.661267714813408E1
337 285 2.1750307603738264E1
337 303 -4.250946285642931E1
337 308 7.207596624669463E-1
337 311 -1.346470884640754E1
337 325 3.16307231023346
337 337 1.1349459997597305E2
337 339 1.7149965725072462
337 386 2.8388018487698183E1
338 324 -1.686250231180162E1
338 336 1.7149965725074736
338 338 8.768009782309497E1
338 348 -1.2078820927688014E1
338 350 -5.8528857252061925
338 385 -7.002341968724071
338 468 -4.593411187162019
338 498 1.8029460318240602E1
339 308 -5.8528857252061925
339 325 -1.686250231180162E1
339 337 1.7149965725074736
339 339 8.768009782309497E1
339 349 -1.2078820927688014E1
339 386 -7.002341968724071
339 469 -4.593411187162019
339 499 1.8029460318240602E1
340 260 -2.3217428346157785E1
340 301 1.780052394756724E1
340 307 -4.246810189925723E1
340 309 1.504771305107936E1
340 315 1.183640860477624E1
340 317 -4.941913092679471
340 329 -1.9338447286694986
340 332 -9.372255133909363
340 340 2.4899525164218332E2
340 342 1.3136431826300829E1
340 372 1.3722359443210772
340 375 -8.122312412084879
340 384 -1.629304490865168E1
340 387 8.166479059747084E1
340 399 -7.705618488030767E1
341 262 -2.3217428346157785E1
341 303 1.780052394756724E1
341 308 -4.246810189925723E1
341 311 1.504771305107936E1
341 316 1.183640860477624E1
341 319 -4.941913092679471
341 331 -1.9338447286694986
341 333 -9.372255133909363
341 341 2.4899525164218332E2
341 344 1.3136431826300829E1
341 356 -7.705618488030767E1
341 374 1.3722359443210772
341 377 -8.122312412084879
341 386 -1.629304490865168E1
341 389 8.166479059747084E1
342 257 -5.222505217943426E1
342 260 -1.0491659032705833E1
342 283 -6.0968917453013844
342 301 -3.8461459669274E1
342 309 -1.1677496967873022E1
342 312 -1.680357078321957
342 317 -7.734857379205431
342 320 2.9827280138472214
342 326 -7.994689011205301E-2
342 329 1.6503574517130692E-1
342 340 1.313643182630104E1
342 342 8.257221146924162E1
343 258 -5.222505217943426E1
343 261 -1.0491659032705833E1
343 284 -6.0968917453013844
343 302 -3.8461459669274E1
343 310 -1.1677496967873022E1
343 313 -1.680357078321957
343 318 -7.734857379205431
343 321 2.9827280138472214
343 327 -7.994689011205301E-2
343 330 1.6503574517130692E-1
343 343 8.257221146924162E1
343 371 1.313643182630104E1
344 259 -5.222505217943426E1
344 262 -1.0491659032705833E1
344 285 -6.0968917453013844
344 303 -3.8461459669274E1
344 311 -1.1677496967873022E1
344 314 -1.680357078321957
344 319 -7.734857379205431
344 322 2.9827280138472214
344 328 -7.994689011205301E-2
344 331 1.6503574517130692E-1
344 341 1.313643182630104E1
344 344 8.257221146924162E1
345 239 -6.6780356955993625
345 301 2.1880080907417863E1
345 334 1.6572469122404595E1
345 345 1.4725713002322107E2
345 361 7.798496814464517
345 384 3.121476508985299E1
345 387 -1.9273972041794224E1
345 394 -4.628913770275638
345 414 -2.0324333381562603E1
345 417 1.6591618439984053E1
346 241 -6.6780356955993625
346 279 1.6572469122404595E1
346 303 2.1880080907417863E1
346 346 1.4725713002322107E2
346 363 7.798496814464517
346 386 3.121476508985299E1
346 389 -1.9273972041794224E1
346 396 -4.628913770275638
346 416 -2.0324333381562603E1
346 419 1.6591618439984053E1
347 307 -2.5125720217109664
347 347 1.7911541011260974E2
347 351 -1.1028745292648054E2
347 367 -1.2078820927687786E1
347 375 -1.6344471221442426E1
347 384 1.8241593368004878
347 458 -3.161192774920938
347 464 9.247020380466553
347 497 -3.040999490603697E1
348 338 -1.2078820927687786E1
348 348 1.7911541011260974E2
348 350 -2.5125720217109664
348 352 -1.1028745292648054E2
348 376 -1.6344471221442426E1
348 385 1.8241593368004878
348 459 -3.161192774920938
348 465 9.247020380466553
348 498 -3.040999490603697E1
349 308 -2.5125720217109664
349 339 -1.2078820927687786E1
349 349 1.7911541011260974E2
349 353 -1.1028745292648054E2
349 377 -1.6344471221442426E1
349 386 1.8241593368004878
349 460 -3.161192774920938
349 466 9.247020380466553
349 499 -3.040999490603697E1
350 302 1.557164897692057E1
350 310 4.949469834933803
350 336 7.207596624668895E-1
350 338 -5.852885725206448
350 348 -2.512572021711336
350 350 3.89925769255815E2
350 352 -3.5170701001505215E1
350 354 -2.046171307515499E2
350 371 -4.2468101899257036E1
350 376 2.9481756192887154E1
350 385 3.26928535536215E1
351 307 -3.517070100150516E1
351 315 3.3107336344185015E1
351 332 -1.5067628599471025E1
351 347 -1.1028745292648057E2
351 351 1.904642115484034E2
351 375 -1.851736664352771E1
351 464 4.521010193136979
351 476 -1.9436384180492123E1
352 348 -1.1028745292648057E2
352 350 -3.517070100150516E1
352 352 1.904642115484034E2
352 354 3.3107336344185015E1
352 355 -1.5067628599471025E1
352 376 -1.851736664352771E1
352 465 4.521010193136979
352 477 -1.9436384180492123E1
353 308 -3.517070100150516E1
353 316 3.3107336344185015E1
353 333 -1.5067628599471025E1
353 349 -1.1028745292648057E2
353 353 1.904642115484034E2
353 377 -1.851736664352771E1
353 466 4.521010193136979
353 478 -1.9436384180492123E1
354 310 -6.609701743718882
354 318 6.701124187210271
354 330 -5.0980397804812805
354 350 -2.0461713075154987E2
354 352 3.310733634418532E1
354 354 2.4683339458338548E2
354 355 -3.91573885803432E1
354 371 1.1836408604776198E1
354 376 -9.432177579801717E-1
355 330 4.7508352887012055
355 352 -1.5067628599470975E1
355 354 -3.915738858034322E1
355 355 6.429755947077192E1
355 371 -9.37225513390932
355 376 -8.589124589817336
355 477 3.991147012439312
356 262 3.228970097203371
356 303 3.861314815277766E1
356 341 -7.705618488030858E1
356 356 2.3533164176530366E2
356 357 2.050107106128485E1
356 374 -1.1330485477198959E1
356 389 -1.0989457799042223E2
356 433 -9.559788213300696E1
356 436 -2.6478233022087114E1
357 69 1.0266819475107908E1
357 356 2.0501071061285337E1
357 357 3.2527632092413756E2
357 370 -2.0446303444518296E1
357 374 -1.627271724837628E1
357 389 -1.207465731787231E1
357 430 -1.1761477724498516E1
357 436 -6.44214982566727E1
357 448 4.247886861527308
358 49 -1.6222602982716907E1
358 83 1.40543432619479E-1
358 358 2.039301684161717E2
358 361 -2.560265829739678E1
358 381 1.9096615683161957
358 387 7.603002958720577E1
358 394 -3.673832408765848E1
358 446 5.531112272459225
358 490 4.223586976601002
358 492 8.158846548678156E-1
359 359 2.039301684161717E2
359 362 -2.560265829739678E1
359 364 4.223586976601002
359 366 8.158846548678156E-1
359 382 1.9096615683161957
359 388 7.603002958720577E1
359 395 -3.673832408765848E1
359 397 -1.6222602982716907E1
359 427 1.40543432619479E-1
359 447 5.531112272459225
360 360 2.039301684161717E2
360 363 -2.560265829739678E1
360 365 1.40543432619479E-1
360 383 1.9096615683161957
360 389 7.603002958720577E1
360 396 -3.673832408765848E1
360 398 -1.6222602982716907E1
360 448 5.531112272459225
360 491 4.223586976601002
360 493 8.158846548678156E-1
361 334 6.455609943046522
361 345 7.798496814464944
361 358 -2.5602658297396736E1
361 361 1.75800907523317E2
361 381 4.31734795683751E1
361 384 2.246266294349266E1
361 387 -4.860739111626282E1
361 394 2.6852157527902634
361 487 -1.0489318592576069E-2
361 490 -2.6491422805798088E1
362 278 6.455609943046522
362 359 -2.5602658297396736E1
362 362 1.75800907523317E2
362 364 -2.6491422805798088E1
362 382 4.31734795683751E1
362 385 2.246266294349266E1
362 388 -4.860739111626282E1
362 393 7.798496814464944
362 395 2.6852157527902634
362 488 -1.0489318592576069E-2
363 279 6.455609943046522
363 346 7.798496814464944
363 360 -2.5602658297396736E1
363 363 1.75800907523317E2
363 383 4.31734795683751E1
363 386 2.246266294349266E1
363 389 -4.860739111626282E1
363 396 2.6852157527902634
363 489 -1.0489318592576069E-2
363 491 -2.6491422805798088E1
364 359 4.223586976601279
364 362 -2.649142280579718E1
364 364 4.675025146322832E2
364 366 1.3929060130754372E1
364 379 1.6645466106557865E2
364 382 -1.3745890335341142E2
364 385 -1.506215758291061E1
364 483 -1.2586610911383993E1
364 488 5.397306330906879
364 506 -6.454302844589994E1
364 606 4.338904438655902
365 52 1.8033182754638997E1
365 105 4.120400476475089E1
365 360 1.4054343261920188E-1
365 365 3.4178046243404503E2
365 383 2.722138132923942E1
365 398 4.3267791241177385
365 426 -2.120368828499821
365 493 1.1957690335580665E1
365 605 5.801358064705415
365 627 -4.5914005340586016E1
365 760 -1.957129740544707E1
366 359 8.158846548652008E-1
366 364 1.3929060130755502E1
366 366 1.1109891887631919E2
366 382 -3.6471900117907126E1
366 427 1.1957690335580523E1
366 506 -2.239320697938524
366 604 -2.090343011113518
366 606 -6.8715658912033E1
366 626 1.3003083052052379E1
367 307 -5.8528857252061925
367 323 -1.686250231180162E1
367 335 1.7149965725074736
367 347 -1.2078820927688014E1
367 367 8.768009782309497E1
367 384 -7.002341968724071
367 467 -4.593411187162019
367 497 1.8029460318240602E1
368 67 -1.6620384980639376E1
368 85 2.042630249548386E1
368 368 5.422707336042772E2
368 372 -1.1670886325430226E2
368 378 -2.826522044623327E1
368 381 -7.852498666208413E1
368 387 3.832323741118198E1
368 401 -2.0446303444518843E1
368 446 7.800757555005897E-1
368 619 -6.6431494349096445
369 68 -1.6620384980639376E1
369 86 2.042630249548386E1
369 369 5.422707336042772E2
369 373 -1.1670886325430226E2
369 379 -2.826522044623327E1
369 382 -7.852498666208413E1
369 388 3.832323741118198E1
369 402 -2.0446303444518843E1
369 447 7.800757555005897E-1
369 620 -6.6431494349096445
370 69 -1.6620384980639376E1
370 87 2.042630249548386E1
370 357 -2.0446303444518843E1
370 370 5.422707336042772E2
370 374 -1.1670886325430226E2
370 380 -2.826522044623327E1
370 383 -7.852498666208413E1
370 389 3.832323741118198E1
370 448 7.800757555005897E-1
370 621 -6.6431494349096445
371 261 -2.3217428346157785E1
371 302 1.780052394756724E1
371 310 1.504771305107936E1
371 318 -4.941913092679471
371 330 -1.9338447286694986
371 343 1.3136431826300829E1
371 350 -4.246810189925723E1
371 354 1.183640860477624E1
371 355 -9.372255133909363
371 371 2.4899525164218332E2
371 373 1.3722359443210772
371 376 -8.122312412084879
371 385 -1.629304490865168E1
371 388 8.166479059747084E1
371 400 -7.705618488030767E1
372 340 1.3722359443212193
372 368 -1.1670886325430237E2
372 372 3.1378658348608536E2
372 375 -4.460645713668051E1
372 378 -1.0633359734107749E2
372 381 6.295202812481639E1
372 384 1.2717349455088604E1
372 387 -9.965029050946143E1
372 399 -1.1330485477198447E1
372 401 -1.627271724837609E1
373 369 -1.1670886325430237E2
373 371 1.3722359443212193
373 373 3.1378658348608536E2
373 376 -4.460645713668051E1
373 379 -1.0633359734107749E2
373 382 6.295202812481639E1
373 385 1.2717349455088604E1
373 388 -9.965029050946143E1
373 400 -1.1330485477198447E1
373 402 -1.627271724837609E1
374 341 1.3722359443212193
374 356 -1.1330485477198447E1
374 357 -1.627271724837609E1
374 370 -1.1670886325430237E2
374 374 3.1378658348608536E2
374 377 -4.460645713668051E1
374 380 -1.0633359734107749E2
374 383 6.295202812481639E1
374 386 1.2717349455088604E1
374 389 -9.965029050946143E1
375 307 2.948175619288696E1
375 315 -9.43217757980257E-1
375 332 -8.589124589817313
375 340 -8.122312412084256
375 347 -1.634447122144246E1
375 351 -1.851736664352771E1
375 372 -4.460645713668039E1
375 375 3.6562701790062584E2
375 378 6.212648244990506
375 384 5.338984920452147E1
375 458 1.5763118555674028E1
375 464 5.185056523415569
375 476 -5.5444261066611364
375 497 -5.977353399018578E1
375 500 -2.029386267790999
375 505 5.9172917195606736E1
376 348 -1.634447122144246E1
376 350 2.948175619288696E1
376 352 -1.851736664352771E1
376 354 -9.43217757980257E-1
376 355 -8.589124589817313
376 371 -8.122312412084256
376 373 -4.460645713668039E1
376 376 3.6562701790062584E2
376 379 6.212648244990506
376 385 5.338984920452147E1
376 459 1.5763118555674028E1
376 465 5.185056523415569
376 477 -5.5444261066611364
376 498 -5.977353399018578E1
376 501 -2.029386267790999
376 506 5.9172917195606736E1
377 308 2.948175619288696E1
377 316 -9.43217757980257E-1
377 333 -8.589124589817313
377 341 -8.122312412084256
377 349 -1.634447122144246E1
377 353 -1.851736664352771E1
377 374 -4.460645713668039E1
377 377 3.6562701790062584E2
377 380 6.212648244990506
377 386 5.338984920452147E1
377 460 1.5763118555674028E1
377 466 5.185056523415569
377 478 -5.5444261066611364
377 499 -5.977353399018578E1
377 502 -2.029386267790999
377 507 5.9172917195606736E1
378 368 -2.8265220446233542E1
378 372 -1.0633359734107837E2
378 375 6.212648244990829
378 378 8.922040243235231E2
378 381 -8.579789795975806E1
378 384 -1.9899858376900346E2
378 387 1.0877217819903206E2
378 490 1.66454661065577E2
378 500 -1.7197571893674763E1
378 505 -7.134889694436067E1
378 613 -2.1853382234659446
378 619 7.398585346877631
379 364 1.66454661065577E2
379 369 -2.8265220446233542E1
379 373 -1.0633359734107837E2
379 376 6.212648244990829
379 379 8.922040243235231E2
379 382 -8.579789795975806E1
379 385 -1.9899858376900346E2
379 388 1.0877217819903206E2
379 501 -1.7197571893674763E1
379 506 -7.134889694436067E1
379 614 -2.1853382234659446
379 620 7.398585346877631
380 370 -2.8265220446233542E1
380 374 -1.0633359734107837E2
380 377 6.212648244990829
380 380 8.922040243235231E2
380 383 -8.579789795975806E1
380 386 -1.9899858376900346E2
380 389 1.0877217819903206E2
380 491 1.66454661065577E2
380 502 -1.7197571893674763E1
380 507 -7.134889694436067E1
380 615 -2.1853382234659446
380 621 7.398585346877631
381 49 1.8528416259810584E1
381 67 4.141456486146012
381 83 2.7221381329239136E1
381 85 8.873233323246325
381 103 -3.8301811488842226E1
381 358 1.9096615683163094
381 361 4.317347956837564E1
381 368 -7.852498666208405E1
381 372 6.295202812481655E1
381 378 -8.579789795975832E1
381 381 7.497066440802071E2
381 384 3.970113987180993E1
381 387 -7.801038035980592E1
381 446 -1.734839084275901
381 485 4.610698556805318
381 490 -1.374589033534124E2
381 492 -3.6471900117909854E1
381 505 5.065159524301582E1
381 613 3.8508743880434713
381 619 -5.153787116585645E1
381 622 -6.421243225881544
381 625 -4.499129354940654E1
381 759 1.8435242748943942E1
382 68 4.141456486146012
382 86 8.873233323246325
382 104 -3.8301811488842226E1
382 111 1.8435242748943942E1
382 359 1.9096615683163094
382 362 4.317347956837564E1
382 364 -1.374589033534124E2
382 366 -3.6471900117909854E1
382 369 -7.852498666208405E1
382 373 6.295202812481655E1
382 379 -8.579789795975832E1
382 382 7.497066440802071E2
382 385 3.970113987180993E1
382 388 -7.801038035980592E1
382 397 1.8528416259810584E1
382 427 2.7221381329239136E1
382 447 -1.734839084275901
382 506 5.065159524301582E1
382 606 4.610698556805318
382 614 3.8508743880434713
382 620 -5.153787116585645E1
382 623 -6.421243225881544
382 626 -4.499129354940654E1
383 69 4.141456486146012
383 87 8.873233323246325
383 105 -3.8301811488842226E1
383 360 1.9096615683163094
383 363 4.317347956837564E1
383 365 2.7221381329239136E1
383 370 -7.852498666208405E1
383 374 6.295202812481655E1
383 380 -8.579789795975832E1
383 383 7.497066440802071E2
383 386 3.970113987180993E1
383 389 -7.801038035980592E1
383 398 1.8528416259810584E1
383 448 -1.734839084275901
383 486 4.610698556805318
383 491 -1.374589033534124E2
383 493 -3.6471900117909854E1
383 507 5.065159524301582E1
383 615 3.8508743880434713
383 621 -5.153787116585645E1
383 624 -6.421243225881544
383 627 -4.499129354940654E1
383 760 1.8435242748943942E1
384 301 -2.1453402515056375E1
384 307 3.269285355362138E1
384 323 2.031740164028612E1
384 334 -1.5856307474347986E1
384 335 2.8388018487697835E1
384 340 -1.6293044908652462E1
384 345 3.1214765089852662E1
384 347 1.8241593368004256
384 361 2.2462662943491893E1
384 367 -7.002341968724087
384 372 1.2717349455088945E1
384 375 5.338984920452141E1
384 378 -1.9899858376900266E2
384 381 3.970113987180928E1
384 384 4.485160314550258E2
384 387 -1.04701074076478E2
384 467 -4.31236466681591
384 487 6.40446916124148E-1
384 490 -1.5062157582909835E1
384 497 -3.213661352053045E1
384 505 5.606480566808054E1
385 278 -1.5856307474347986E1
385 302 -2.1453402515056375E1
385 324 2.031740164028612E1
385 336 2.8388018487697835E1
385 338 -7.002341968724087
385 348 1.8241593368004256
385 350 3.269285355362138E1
385 362 2.2462662943491893E1
385 364 -1.5062157582909835E1
385 371 -1.6293044908652462E1
385 373 1.2717349455088945E1
385 376 5.338984920452141E1
385 379 -1.9899858376900266E2
385 382 3.970113987180928E1
385 385 4.485160314550258E2
385 388 -1.04701074076478E2
385 393 3.1214765089852662E1
385 468 -4.31236466681591
385 488 6.40446916124148E-1
385 498 -3.213661352053045E1
385 506 5.606480566808054E1
386 279 -1.5856307474347986E1
386 303 -2.1453402515056375E1
386 308 3.269285355362138E1
386 325 2.031740164028612E1
386 337 2.8388018487697835E1
386 339 -7.002341968724087
386 341 -1.6293044908652462E1
386 346 3.1214765089852662E1
386 349 1.8241593368004256
386 363 2.2462662943491893E1
386 374 1.2717349455088945E1
386 377 5.338984920452141E1
386 380 -1.9899858376900266E2
386 383 3.970113987180928E1
386 386 4.485160314550258E2
386 389 -1.04701074076478E2
386 469 -4.31236466681591
386 489 6.40446916124148E-1
386 491 -1.5062157582909835E1
386 499 -3.213661352053045E1
386 507 5.606480566808054E1
387 301 6.3881519819161525E1
387 340 8.16647905974715E1
387 345 -1.9273972041794025E1
387 358 7.60300295872062E1
387 361 -4.860739111626347E1
387 368 3.832323741118167E1
387 372 -9.965029050946173E1
387 378 1.0877217819903208E2
387 381 -7.801038035980552E1
387 384 -1.0470107407647828E2
387 387 6.080657868421666E2
387 394 -2.125026514624342E1
387 399 -1.0989457799042177E2
387 401 -1.2074657317872575E1
387 414 -6.391191645641311E1
387 417 -2.5278633516417003E1
387 431 6.866594221174853E1
387 434 -2.506651914501392E1
387 446 -3.60992255085326E1
388 302 6.3881519819161525E1
388 359 7.60300295872062E1
388 362 -4.860739111626347E1
388 369 3.832323741118167E1
388 371 8.16647905974715E1
388 373 -9.965029050946173E1
388 379 1.0877217819903208E2
388 382 -7.801038035980552E1
388 385 -1.0470107407647828E2
388 388 6.080657868421666E2
388 393 -1.9273972041794025E1
388 395 -2.125026514624342E1
388 400 -1.0989457799042177E2
388 402 -1.2074657317872575E1
388 415 -6.391191645641311E1
388 418 -2.5278633516417003E1
388 432 6.866594221174853E1
388 435 -2.506651914501392E1
388 447 -3.60992255085326E1
389 303 6.3881519819161525E1
389 341 8.16647905974715E1
389 346 -1.9273972041794025E1
389 356 -1.0989457799042177E2
389 357 -1.2074657317872575E1
389 360 7.60300295872062E1
389 363 -4.860739111626347E1
389 370 3.832323741118167E1
389 374 -9.965029050946173E1
389 380 1.0877217819903208E2
389 383 -7.801038035980552E1
389 386 -1.0470107407647828E2
389 389 6.080657868421666E2
389 396 -2.125026514624342E1
389 416 -6.391191645641311E1
389 419 -2.5278633516417003E1
389 433 6.866594221174853E1
389 436 -2.506651914501392E1
389 448 -3.60992255085326E1
390 167 -2.5344009183771803
390 182 -9.644771553916627
390 233 2.0416974212645272E1
390 390 1.8046155666654275E2
390 406 -5.5272940160055725E1
390 414 4.05585441537221E1
390 420 -4.132399560895507E1
391 168 -2.5344009183771803
391 234 2.0416974212645272E1
391 391 1.8046155666654275E2
391 407 -5.5272940160055725E1
391 409 -9.644771553916627
391 415 4.05585441537221E1
391 421 -4.132399560895507E1
392 169 -2.5344009183771803
392 235 2.0416974212645272E1
392 392 1.8046155666654275E2
392 408 -5.5272940160055725E1
392 410 -9.644771553916627
392 416 4.05585441537221E1
392 422 -4.132399560895507E1
393 240 -6.6780356955993625
393 278 1.6572469122404595E1
393 302 2.1880080907417863E1
393 362 7.798496814464517
393 385 3.121476508985299E1
393 388 -1.9273972041794224E1
393 393 1.4725713002322107E2
393 395 -4.628913770275638
393 415 -2.0324333381562603E1
393 418 1.6591618439984053E1
394 49 4.6231945595390584
394 345 -4.628913770275894
394 358 -3.673832408765791E1
394 361 2.6852157527906613
394 387 -2.1250265146243024E1
394 394 9.255916536036938E1
394 411 2.9983142246956405
394 417 9.504794190684684
394 446 1.0316292064698771E1
395 359 -3.673832408765791E1
395 362 2.6852157527906613
395 388 -2.1250265146243024E1
395 393 -4.628913770275894
395 395 9.255916536036938E1
395 397 4.6231945595390584
395 412 2.9983142246956405
395 418 9.504794190684684
395 447 1.0316292064698771E1
396 346 -4.628913770275894
396 360 -3.673832408765791E1
396 363 2.6852157527906613
396 389 -2.1250265146243024E1
396 396 9.255916536036938E1
396 398 4.6231945595390584
396 413 2.9983142246956405
396 419 9.504794190684684
396 448 1.0316292064698771E1
397 51 2.9563197764069145
397 81 2.1551577521565815
397 104 -7.558349965939001
397 359 -1.6222602982716936E1
397 382 1.852841625980949E1
397 395 4.623194559538831
397 397 1.1706776689261349E2
397 412 -1.1064327300682912E1
397 427 4.326779124116772
397 447 2.6625820326094377E1
398 52 2.9563197764069145
398 82 2.1551577521565815
398 105 -7.558349965939001
398 360 -1.6222602982716936E1
398 365 4.326779124116772
398 383 1.852841625980949E1
398 396 4.623194559538831
398 398 1.1706776689261349E2
398 413 -1.1064327300682912E1
398 448 2.6625820326094377E1
399 260 3.228970097203371
399 301 3.861314815277766E1
399 340 -7.705618488030858E1
399 372 -1.1330485477198959E1
399 387 -1.0989457799042223E2
399 399 2.3533164176530366E2
399 401 2.050107106128485E1
399 431 -9.559788213300696E1
399 434 -2.6478233022087114E1
400 261 3.228970097203371
400 302 3.861314815277766E1
400 371 -7.705618488030858E1
400 373 -1.1330485477198959E1
400 388 -1.0989457799042223E2
400 400 2.3533164176530366E2
400 402 2.050107106128485E1
400 432 -9.559788213300696E1
400 435 -2.6478233022087114E1
401 67 1.0266819475107908E1
401 368 -2.0446303444518296E1
401 372 -1.627271724837628E1
401 387 -1.207465731787231E1
401 399 2.0501071061285337E1
401 401 3.2527632092413756E2
401 428 -1.1761477724498516E1
401 434 -6.44214982566727E1
401 446 4.247886861527308
402 68 1.0266819475107908E1
402 369 -2.0446303444518296E1
402 373 -1.627271724837628E1
402 388 -1.207465731787231E1
402 400 2.0501071061285337E1
402 402 3.2527632092413756E2
402 429 -1.1761477724498516E1
402 435 -6.44214982566727E1
402 447 4.247886861527308
403 173 1.0317899642977033
403 182 -1.6259674750222423E1
403 266 -5.605924995898132
403 295 7.555156784633255E-5
403 403 8.372110443927768E1
403 406 -1.8725083712391378E1
403 431 5.24814660056246
403 437 1.2911573359880762E1
404 174 1.0317899642977033
404 267 -5.605924995898132
404 296 7.555156784633255E-5
404 404 8.372110443927768E1
404 407 -1.8725083712391378E1
404 409 -1.6259674750222423E1
404 432 5.24814660056246
404 438 1.2911573359880762E1
405 175 1.0317899642977033
405 268 -5.605924995898132
405 297 7.555156784633255E-5
405 405 8.372110443927768E1
405 408 -1.8725083712391378E1
405 410 -1.6259674750222423E1
405 433 5.24814660056246
405 439 1.2911573359880762E1
406 182 -1.3281416089673144
406 233 -2.163950859532926E1
406 272 2.766498290616616E1
406 295 -2.9175150363178645E1
406 390 -5.527294016005581E1
406 403 -1.872508371239118E1
406 406 1.695986991852489E2
406 414 -5.199094594316534
406 420 2.1484582296734743E1
406 431 2.3174854621767146E1
406 437 -3.7195968936521524E1
407 234 -2.163950859532926E1
407 273 2.766498290616616E1
407 296 -2.9175150363178645E1
407 391 -5.527294016005581E1
407 404 -1.872508371239118E1
407 407 1.695986991852489E2
407 409 -1.3281416089673144
407 415 -5.199094594316534
407 421 2.1484582296734743E1
407 432 2.3174854621767146E1
407 438 -3.7195968936521524E1
408 235 -2.163950859532926E1
408 274 2.766498290616616E1
408 297 -2.9175150363178645E1
408 392 -5.527294016005581E1
408 405 -1.872508371239118E1
408 408 1.695986991852489E2
408 410 -1.3281416089673144
408 416 -5.199094594316534
408 422 2.1484582296734743E1
408 433 2.3174854621767146E1
408 439 -3.7195968936521524E1
409 168 1.367555563201884E1
409 174 -1.1927963717435928
409 184 -1.0302109093387769E2
409 391 -9.644771553916684
409 404 -1.6259674750222405E1
409 407 -1.328141608966888
409 409 1.5248833342422856E2
409 421 -3.187551684022857E1
409 438 -3.693200388369494E1
410 169 1.367555563201884E1
410 175 -1.1927963717435928
410 185 -1.0302109093387769E2
410 392 -9.644771553916684
410 405 -1.6259674750222405E1
410 408 -1.328141608966888
410 410 1.5248833342422856E2
410 422 -3.187551684022857E1
410 439 -3.693200388369494E1
411 49 -1.106432730068294E1
411 80 7.337916052689621
411 103 2.1393416608117146E1
411 106 6.8895565153184535
411 394 2.9983142246954984
411 411 1.6987982473070946E2
411 417 3.4865845311684858
411 423 -2.9020066911760324E1
411 425 2.249984019761021
411 446 -4.4854297530215106E1
412 81 7.337916052689621
412 104 2.1393416608117146E1
412 107 6.8895565153184535
412 202 2.249984019761021
412 395 2.9983142246954984
412 397 -1.106432730068294E1
412 412 1.6987982473070946E2
412 418 3.4865845311684858
412 424 -2.9020066911760324E1
412 447 -4.4854297530215106E1
413 82 7.337916052689621
413 105 2.1393416608117146E1
413 108 6.8895565153184535
413 201 -2.9020066911760324E1
413 203 2.249984019761021
413 396 2.9983142246954984
413 398 -1.106432730068294E1
413 413 1.6987982473070946E2
413 419 3.4865845311684858
413 448 -4.4854297530215106E1
414 233 -6.166929290917334
414 239 -1.578772569731369E1
414 272 3.345447311285625
414 275 -5.855347784565099E1
414 295 7.90183830032264E1
414 301 -1.7149512213513333E1
414 345 -2.0324333381562603E1
414 387 -6.391191645641311E1
414 390 4.055854415372199E1
414 406 -5.199094594317103
414 414 7.468860817048036E2
414 417 4.6045301836715026E1
414 420 -5.5691989185980795
414 431 6.955520651033298E1
414 434 6.177216914278832E1
414 437 -1.001604183783169E1
415 234 -6.166929290917334
415 240 -1.578772569731369E1
415 273 3.345447311285625
415 276 -5.855347784565099E1
415 296 7.90183830032264E1
415 302 -1.7149512213513333E1
415 388 -6.391191645641311E1
415 391 4.055854415372199E1
415 393 -2.0324333381562603E1
415 407 -5.199094594317103
415 415 7.468860817048036E2
415 418 4.6045301836715026E1
415 421 -5.5691989185980795
415 432 6.955520651033298E1
415 435 6.177216914278832E1
415 438 -1.001604183783169E1
416 235 -6.166929290917334
416 241 -1.578772569731369E1
416 274 3.345447311285625
416 277 -5.855347784565099E1
416 297 7.90183830032264E1
416 303 -1.7149512213513333E1
416 346 -2.0324333381562603E1
416 389 -6.391191645641311E1
416 392 4.055854415372199E1
416 408 -5.199094594317103
416 416 7.468860817048036E2
416 419 4.6045301836715026E1
416 422 -5.5691989185980795
416 433 6.955520651033298E1
416 436 6.177216914278832E1
416 439 -1.001604183783169E1
417 345 1.6591618439983584E1
417 387 -2.5278633516416363E1
417 394 9.504794190685182
417 411 3.4865845311685
417 414 4.6045301836715616E1
417 417 4.626987755636913E2
417 420 -6.066010456262021E1
417 423 1.4211551876907215E1
417 434 5.580663278594615E1
417 446 -1.1623118744587705E2
418 388 -2.5278633516416363E1
418 393 1.6591618439983584E1
418 395 9.504794190685182
418 412 3.4865845311685
418 415 4.6045301836715616E1
418 418 4.626987755636913E2
418 421 -6.066010456262021E1
418 424 1.4211551876907215E1
418 435 5.580663278594615E1
418 447 -1.1623118744587705E2
419 201 1.4211551876907215E1
419 346 1.6591618439983584E1
419 389 -2.5278633516416363E1
419 396 9.504794190685182
419 413 3.4865845311685
419 416 4.6045301836715616E1
419 419 4.626987755636913E2
419 422 -6.066010456262021E1
419 436 5.580663278594615E1
419 448 -1.1623118744587705E2
420 167 -1.195698425432837E1
420 182 -3.1875516840228865E1
420 183 7.762333332019074E1
420 192 -3.939685644412516E1
420 390 -4.132399560895513E1
420 406 2.1484582296734747E1
420 414 -5.569198918597853
420 417 -6.066010456261981E1
420 420 3.891741299882899E2
420 423 -2.8281710796393213E1
420 434 9.174333562037786E1
420 437 -4.326780285531826E1
421 168 -1.195698425432837E1
421 184 7.762333332019074E1
421 193 -3.939685644412516E1
421 391 -4.132399560895513E1
421 407 2.1484582296734747E1
421 409 -3.1875516840228865E1
421 415 -5.569198918597853
421 418 -6.066010456261981E1
421 421 3.891741299882899E2
421 424 -2.8281710796393213E1
421 435 9.174333562037786E1
421 438 -4.326780285531826E1
422 169 -1.195698425432837E1
422 185 7.762333332019074E1
422 194 -3.939685644412516E1
422 201 -2.8281710796393213E1
422 392 -4.132399560895513E1
422 408 2.1484582296734747E1
422 410 -3.1875516840228865E1
422 416 -5.569198918597853
422 419 -6.066010456261981E1
422 422 3.891741299882899E2
422 436 9.174333562037786E1
422 439 -4.326780285531826E1
423 106 -2.3289913986121746E1
423 192 -1.4629382126719884E2
423 195 3.735913461281926E1
423 207 9.706223068135571E1
423 411 -2.9020066911761347E1
423 417 1.42115518769073E1
423 420 -2.8281710796392993E1
423 423 6.920099322564388E2
423 425 -1.497287184172481E1
423 434 -2.510989410818808
423 437 2.9507095564009905E1
423 440 1.672643341667957E1
423 446 -7.746371160073869E1
424 107 -2.3289913986121746E1
424 193 -1.4629382126719884E2
424 196 3.735913461281926E1
424 202 -1.497287184172481E1
424 208 9.706223068135571E1
424 412 -2.9020066911761347E1
424 418 1.42115518769073E1
424 421 -2.8281710796392993E1
424 424 6.920099322564388E2
424 435 -2.510989410818808
424 438 2.9507095564009905E1
424 441 1.672643341667957E1
424 447 -7.746371160073869E1
425 77 1.600939849104611
425 80 2.2956258165874743E-1
425 106 -2.345585278244034E1
425 195 -5.683190057664908
425 411 2.2499840197607295
425 423 -1.497287184172643E1
425 425 9.047177626046647E1
426 52 6.637222085678346
426 365 -2.120368828501128
426 426 1.3016346045514325E2
426 605 2.250113597832101
426 627 -1.7042989449324345E1
426 703 -4.198629598108502
426 760 -1.7959418906012274E1
426 872 -1.28194209308229E1
426 875 -1.7866513022994294E1
426 885 2.0867694878954076E1
427 51 1.8033182754638997E1
427 104 4.120400476475089E1
427 111 -1.957129740544707E1
427 359 1.4054343261920188E-1
427 366 1.1957690335580665E1
427 382 2.722138132923942E1
427 397 4.3267791241177385
427 427 3.4178046243404503E2
427 604 5.801358064705415
427 626 -4.5914005340586016E1
427 869 -2.120368828499821
428 67 -5.398991393047947E1
428 100 2.4102213285307265E1
428 103 8.80914968036019E1
428 106 5.9202066393427316E1
428 401 -1.1761477724497624E1
428 428 4.25821482664688E2
428 434 -1.5659962420517475
428 440 -7.256611055210175E1
428 443 -5.68771653385064E1
428 446 -8.367367826284861E1
429 68 -5.398991393047947E1
429 101 2.4102213285307265E1
429 104 8.80914968036019E1
429 107 5.9202066393427316E1
429 402 -1.1761477724497624E1
429 429 4.25821482664688E2
429 435 -1.5659962420517475
429 441 -7.256611055210175E1
429 444 -5.68771653385064E1
429 447 -8.367367826284861E1
430 69 -5.398991393047947E1
430 102 2.4102213285307265E1
430 105 8.80914968036019E1
430 108 5.9202066393427316E1
430 357 -1.1761477724497624E1
430 430 4.25821482664688E2
430 436 -1.5659962420517475
430 442 -7.256611055210175E1
430 445 -5.68771653385064E1
430 448 -8.367367826284861E1
431 260 -5.2017113397995494E1
431 266 -1.8828046804169032
431 289 1.9085581706765822E1
431 295 2.9908712082534567E1
431 301 1.8886327665866684E1
431 387 6.866594221174813E1
431 399 -9.559788213300483E1
431 403 5.248146600562183
431 406 2.3174854621767267E1
431 414 6.955520651033335E1
431 431 4.949170450503919E2
431 434 -5.498243823610858E1
431 437 -3.4744447344717436E1
432 261 -5.2017113397995494E1
432 267 -1.8828046804169032
432 290 1.9085581706765822E1
432 296 2.9908712082534567E1
432 302 1.8886327665866684E1
432 388 6.866594221174813E1
432 400 -9.559788213300483E1
432 404 5.248146600562183
432 407 2.3174854621767267E1
432 415 6.955520651033335E1
432 432 4.949170450503919E2
432 435 -5.498243823610858E1
432 438 -3.4744447344717436E1
433 262 -5.2017113397995494E1
433 268 -1.8828046804169032
433 291 1.9085581706765822E1
433 297 2.9908712082534567E1
433 303 1.8886327665866684E1
433 356 -9.559788213300483E1
433 389 6.866594221174813E1
433 405 5.248146600562183
433 408 2.3174854621767267E1
433 416 6.955520651033335E1
433 433 4.949170450503919E2
433 436 -5.498243823610858E1
433 439 -3.4744447344717436E1
434 387 -2.506651914501468E1
434 399 -2.6478233022087373E1
434 401 -6.442149825667333E1
434 414 6.1772169142787426E1
434 417 5.5806632785946775E1
434 420 9.17433356203786E1
434 423 -2.5109894108192887
434 428 -1.5659962420509144
434 431 -5.498243823610911E1
434 434 4.7654491619743885E2
434 437 -1.2405721405146964E2
434 440 -1.323768191243383E2
434 446 -4.503976521460274E1
435 388 -2.506651914501468E1
435 400 -2.6478233022087373E1
435 402 -6.442149825667333E1
435 415 6.1772169142787426E1
435 418 5.5806632785946775E1
435 421 9.17433356203786E1
435 424 -2.5109894108192887
435 429 -1.5659962420509144
435 432 -5.498243823610911E1
435 435 4.7654491619743885E2
435 438 -1.2405721405146964E2
435 441 -1.323768191243383E2
435 447 -4.503976521460274E1
436 201 -2.5109894108192887
436 356 -2.6478233022087373E1
436 357 -6.442149825667333E1
436 389 -2.506651914501468E1
436 416 6.1772169142787426E1
436 419 5.5806632785946775E1
436 422 9.17433356203786E1
436 430 -1.5659962420509144
436 433 -5.498243823610911E1
436 436 4.7654491619743885E2
436 439 -1.2405721405146964E2
436 442 -1.323768191243383E2
436 448 -4.503976521460274E1
437 173 3.9551193621742824
437 182 -3.6932003883696055E1
437 183 -5.0942339301569426E1
437 192 5.958750073289134E1
437 204 -5.809804001047004E1
437 403 1.2911573359881324E1
437 406 -3.719596893652107E1
437 414 -1.0016041837830496E1
437 420 -4.326780285531936E1
437 423 2.950709556401088E1
437 431 -3.474444734471636E1
437 434 -1.2405721405147074E2
437 437 5.537216513814169E2
437 440 1.2704218952387201E1
438 174 3.9551193621742824
438 184 -5.0942339301569426E1
438 193 5.958750073289134E1
438 205 -5.809804001047004E1
438 404 1.2911573359881324E1
438 407 -3.719596893652107E1
438 409 -3.6932003883696055E1
438 415 -1.0016041837830496E1
438 421 -4.326780285531936E1
438 424 2.950709556401088E1
438 432 -3.474444734471636E1
438 435 -1.2405721405147074E2
438 438 5.537216513814169E2
438 441 1.2704218952387201E1
439 175 3.9551193621742824
439 185 -5.0942339301569426E1
439 194 5.958750073289134E1
439 201 2.950709556401088E1
439 206 -5.809804001047004E1
439 405 1.2911573359881324E1
439 408 -3.719596893652107E1
439 410 -3.6932003883696055E1
439 416 -1.0016041837830496E1
439 422 -4.326780285531936E1
439 433 -3.474444734471636E1
439 436 -1.2405721405147074E2
439 439 5.537216513814169E2
439 442 1.2704218952387201E1
440 106 9.368131029877837
440 192 6.431982270057239E1
440 204 1.4949320155870492E1
440 207 -8.15660189694867
440 423 1.6726433416678063E1
440 428 -7.256611055210294E1
440 434 -1.323768191243366E2
440 437 1.2704218952384062E1
440 440 5.780839744869646E2
440 443 -3.6706465120843234E1
440 446 1.4429933877870143E1
441 107 9.368131029877837
441 193 6.431982270057239E1
441 205 1.4949320155870492E1
441 208 -8.15660189694867
441 424 1.6726433416678063E1
441 429 -7.256611055210294E1
441 435 -1.323768191243366E2
441 438 1.2704218952384062E1
441 441 5.780839744869646E2
441 444 -3.6706465120843234E1
441 447 1.4429933877870143E1
442 108 9.368131029877837
442 194 6.431982270057239E1
442 201 1.6726433416678063E1
442 206 1.4949320155870492E1
442 209 -8.15660189694867
442 430 -7.256611055210294E1
442 436 -1.323768191243366E2
442 439 1.2704218952384062E1
442 442 5.780839744869646E2
442 445 -3.6706465120843234E1
442 448 1.4429933877870143E1
443 97 -2.2044127491785863
443 100 -1.9168204643551288E1
443 106 -4.6489314460275864E1
443 207 -9.792190244283894
443 428 -5.687716533850676E1
443 440 -3.670646512084093E1
443 443 1.0841178488280045E2
444 98 -2.2044127491785863
444 101 -1.9168204643551288E1
444 107 -4.6489314460275864E1
444 208 -9.792190244283894
444 429 -5.687716533850676E1
444 441 -3.670646512084093E1
444 444 1.0841178488280045E2
445 99 -2.2044127491785863
445 102 -1.9168204643551288E1
445 108 -4.6489314460275864E1
445 209 -9.792190244283894
445 430 -5.687716533850676E1
445 442 -3.670646512084093E1
445 445 1.0841178488280045E2
446 49 2.6625820326094207E1
446 67 2.3097902334804246E1
446 103 -6.1522733043487946E1
446 106 -9.823100302637176
446 358 5.531112272459126
446 368 7.80075755499789E-1
446 381 -1.7348390842775778
446 387 -3.609922550853206E1
446 394 1.0316292064699809E1
446 401 4.247886861527408
446 411 -4.485429753021475E1
446 417 -1.1623118744587686E2
446 423 -7.746371160073932E1
446 428 -8.367367826284956E1
446 434 -4.5039765214604245E1
446 440 1.442993387786968E1
446 446 3.963817362654897E2
447 68 2.3097902334804246E1
447 104 -6.1522733043487946E1
447 107 -9.823100302637176
447 359 5.531112272459126
447 369 7.80075755499789E-1
447 382 -1.7348390842775778
447 388 -3.609922550853206E1
447 395 1.0316292064699809E1
447 397 2.6625820326094207E1
447 402 4.247886861527408
447 412 -4.485429753021475E1
447 418 -1.1623118744587686E2
447 424 -7.746371160073932E1
447 429 -8.367367826284956E1
447 435 -4.5039765214604245E1
447 441 1.442993387786968E1
447 447 3.963817362654897E2
448 69 2.3097902334804246E1
448 105 -6.1522733043487946E1
448 108 -9.823100302637176
448 201 -7.746371160073932E1
448 357 4.247886861527408
448 360 5.531112272459126
448 370 7.80075755499789E-1
448 383 -1.7348390842775778
448 389 -3.609922550853206E1
448 396 1.0316292064699809E1
448 398 2.6625820326094207E1
448 413 -4.485429753021475E1
448 419 -1.1623118744587686E2
448 430 -8.367367826284956E1
448 436 -4.5039765214604245E1
448 442 1.442993387786968E1
448 448 3.963817362654897E2
449 304 -7.247515028961487
449 449 4.993840375809576E1
449 452 -9.353718731459111E-1
449 467 1.3909570038822636E1
449 470 -2.593049363831831E1
449 482 -2.730619869390541
449 487 -6.630567144768776
450 305 -7.247515028961487
450 450 4.993840375809576E1
450 453 -9.353718731459111E-1
450 468 1.3909570038822636E1
450 471 -2.593049363831831E1
450 483 -2.730619869390541
450 488 -6.630567144768776
451 306 -7.247515028961487
451 451 4.993840375809576E1
451 454 -9.353718731459111E-1
451 469 1.3909570038822636E1
451 472 -2.593049363831831E1
451 484 -2.730619869390541
451 489 -6.630567144768776
452 449 -9.353718731453995E-1
452 452 1.6579115130137808E1
452 470 -1.343245303886718
452 473 -5.0865259586387594
452 482 -2.9302863224065305
452 521 -2.030338630167911
452 551 -7.40124518435838
453 450 -9.353718731453995E-1
453 453 1.6579115130137808E1
453 471 -1.343245303886718
453 474 -5.0865259586387594
453 483 -2.9302863224065305
453 522 -2.030338630167911
453 552 -7.40124518435838
454 451 -9.353718731453995E-1
454 454 1.6579115130137808E1
454 472 -1.343245303886718
454 475 -5.0865259586387594
454 484 -2.9302863224065305
454 523 -2.030338630167911
454 553 -7.40124518435838
455 455 9.747027067072037E1
455 458 1.8162784884356164E1
455 461 -7.66709347402442E1
455 473 -2.4751588109873666E1
455 494 -1.69253177456145E1
455 505 -6.871879840762372
455 533 -5.436689109308207
455 536 9.133173013035284
456 456 9.747027067072037E1
456 459 1.8162784884356164E1
456 462 -7.66709347402442E1
456 474 -2.4751588109873666E1
456 495 -1.69253177456145E1
456 506 -6.871879840762372
456 534 -5.436689109308207
456 537 9.133173013035284
457 457 9.747027067072037E1
457 460 1.8162784884356164E1
457 463 -7.66709347402442E1
457 475 -2.4751588109873666E1
457 496 -1.69253177456145E1
457 507 -6.871879840762372
457 535 -5.436689109308207
457 538 9.133173013035284
458 347 -3.1611927749205653
458 375 1.5763118555674371E1
458 455 1.8162784884356235E1
458 458 2.4241608827590443E2
458 461 -2.2603144772556206E1
458 464 -7.015106508894367E1
458 470 -1.3998243834015803E1
458 494 -2.5676473229771855
458 497 -2.267440179591927E1
458 500 -3.732097997939194E1
458 505 3.026266559594366E1
459 348 -3.1611927749205653
459 376 1.5763118555674371E1
459 456 1.8162784884356235E1
459 459 2.4241608827590443E2
459 462 -2.2603144772556206E1
459 465 -7.015106508894367E1
459 471 -1.3998243834015803E1
459 495 -2.5676473229771855
459 498 -2.267440179591927E1
459 501 -3.732097997939194E1
459 506 3.026266559594366E1
460 349 -3.1611927749205653
460 377 1.5763118555674371E1
460 457 1.8162784884356235E1
460 460 2.4241608827590443E2
460 463 -2.2603144772556206E1
460 466 -7.015106508894367E1
460 472 -1.3998243834015803E1
460 496 -2.5676473229771855
460 499 -2.267440179591927E1
460 502 -3.732097997939194E1
460 507 3.026266559594366E1
461 455 -7.667093474024392E1
461 458 -2.260314477255715E1
461 461 1.6076385636804687E2
461 464 -3.77065873643578
461 479 -1.7926882010038206E1
461 500 -8.451109926143978
461 505 -5.3826042551070685
461 536 3.020639065311154
461 542 -9.633881977037428
461 569 -4.262286564188056E-1
462 456 -7.667093474024392E1
462 459 -2.260314477255715E1
462 462 1.6076385636804687E2
462 465 -3.77065873643578
462 480 -1.7926882010038206E1
462 501 -8.451109926143978
462 503 -4.262286564188056E-1
462 506 -5.3826042551070685
462 537 3.020639065311154
462 543 -9.633881977037428
463 457 -7.667093474024392E1
463 460 -2.260314477255715E1
463 463 1.6076385636804687E2
463 466 -3.77065873643578
463 481 -1.7926882010038206E1
463 502 -8.451109926143978
463 504 -4.262286564188056E-1
463 507 -5.3826042551070685
463 538 3.020639065311154
463 544 -9.633881977037428
464 347 9.247020380466452
464 351 4.521010193137007
464 375 5.1850565234157955
464 458 -7.01510650889436E1
464 461 -3.770658736435591
464 464 1.0115303478466573E2
464 476 -2.9874295861493913E1
464 479 -8.688009852415085
464 500 -7.5044889848170095
465 348 9.247020380466452
465 352 4.521010193137007
465 376 5.1850565234157955
465 459 -7.01510650889436E1
465 462 -3.770658736435591
465 465 1.0115303478466573E2
465 477 -2.9874295861493913E1
465 480 -8.688009852415085
465 501 -7.5044889848170095
466 349 9.247020380466452
466 353 4.521010193137007
466 377 5.1850565234157955
466 460 -7.01510650889436E1
466 463 -3.770658736435591
466 466 1.0115303478466573E2
466 478 -2.9874295861493913E1
466 481 -8.688009852415085
466 502 -7.5044889848170095
467 304 -3.823947216762349
467 323 4.315567250273958
467 367 -4.593411187161735
467 384 -4.31236466681642
467 449 1.3909570038822693E1
467 467 1.1511429244092756E2
467 470 -4.8777595596270515
467 487 -1.491880096035917
467 497 4.636614576597395
468 305 -3.823947216762349
468 324 4.315567250273958
468 338 -4.593411187161735
468 385 -4.31236466681642
468 450 1.3909570038822693E1
468 468 1.1511429244092756E2
468 471 -4.8777595596270515
468 488 -1.491880096035917
468 498 4.636614576597395
469 306 -3.823947216762349
469 325 4.315567250273958
469 339 -4.593411187161735
469 386 -4.31236466681642
469 451 1.3909570038822693E1
469 469 1.1511429244092756E2
469 472 -4.8777595596270515
469 489 -1.491880096035917
469 499 4.636614576597395
470 449 -2.5930493638318296E1
470 452 -1.3432453038867322
470 458 -1.3998243834016144E1
470 467 -4.877759559627222
470 470 1.544544640227402E2
470 473 -6.53941326663621
470 482 -4.65099810858153E-1
470 487 1.4554767997341688E1
470 494 -2.7231920294270537
470 497 -2.7015437091942275E1
470 505 -1.0735437073093323E1
471 450 -2.5930493638318296E1
471 453 -1.3432453038867322
471 459 -1.3998243834016144E1
471 468 -4.877759559627222
471 471 1.544544640227402E2
471 474 -6.53941326663621
471 483 -4.65099810858153E-1
471 488 1.4554767997341688E1
471 495 -2.7231920294270537
471 498 -2.7015437091942275E1
471 506 -1.0735437073093323E1
472 451 -2.5930493638318296E1
472 454 -1.3432453038867322
472 460 -1.3998243834016144E1
472 469 -4.877759559627222
472 472 1.544544640227402E2
472 475 -6.53941326663621
472 484 -4.65099810858153E-1
472 489 1.4554767997341688E1
472 496 -2.7231920294270537
472 499 -2.7015437091942275E1
472 507 -1.0735437073093323E1
473 452 -5.086525958638674
473 455 -2.4751588109873893E1
473 470 -6.539413266636778
473 473 2.1699276643494656E2
473 482 -1.1628416524256586
473 494 -3.021150495488092
473 505 -1.4515577062286527
473 521 -3.94684510734443E-1
473 533 -2.643896838019583
473 539 3.9934982995409847
473 551 3.209876187851964E1
474 453 -5.086525958638674
474 456 -2.4751588109873893E1
474 471 -6.539413266636778
474 474 2.1699276643494656E2
474 483 -1.1628416524256586
474 495 -3.021150495488092
474 506 -1.4515577062286527
474 522 -3.94684510734443E-1
474 534 -2.643896838019583
474 540 3.9934982995409847
474 552 3.209876187851964E1
475 454 -5.086525958638674
475 457 -2.4751588109873893E1
475 472 -6.539413266636778
475 475 2.1699276643494656E2
475 484 -1.1628416524256586
475 496 -3.021150495488092
475 507 -1.4515577062286527
475 523 -3.94684510734443E-1
475 535 -2.643896838019583
475 541 3.9934982995409847
475 553 3.209876187851964E1
476 332 3.9911470124392623
476 351 -1.9436384180492123E1
476 375 -5.544426106661122
476 464 -2.9874295861494012E1
476 476 5.223804194436411E1
476 479 -1.7160333247478838
476 500 2.4875330872296303E1
477 352 -1.9436384180492123E1
477 355 3.9911470124392623
477 376 -5.544426106661122
477 465 -2.9874295861494012E1
477 477 5.223804194436411E1
477 480 -1.7160333247478838
477 501 2.4875330872296303E1
478 333 3.9911470124392623
478 353 -1.9436384180492123E1
478 377 -5.544426106661122
478 466 -2.9874295861494012E1
478 478 5.223804194436411E1
478 481 -1.7160333247478838
478 502 2.4875330872296303E1
479 461 -1.7926882010038234E1
479 464 -8.688009852415032
479 476 -1.716033324748026
479 479 7.17044604744583E1
479 500 -2.460825092158234E1
479 542 -3.7023454576707566
479 569 9.762707828915904
480 462 -1.7926882010038234E1
480 465 -8.688009852415032
480 477 -1.716033324748026
480 480 7.17044604744583E1
480 501 -2.460825092158234E1
480 503 9.762707828915904
480 543 -3.7023454576707566
481 463 -1.7926882010038234E1
481 466 -8.688009852415032
481 478 -1.716033324748026
481 481 7.17044604744583E1
481 502 -2.460825092158234E1
481 504 9.762707828915904
481 544 -3.7023454576707566
482 449 -2.730619869390569
482 452 -2.9302863224065927
482 470 -4.6509981086120833E-1
482 473 -1.1628416524258576
482 482 1.878129930750684E2
482 485 2.419351366484097
482 487 -2.4317330058449812E1
482 490 -1.2586610911383723E1
482 494 5.770119525560219
482 497 4.410723337383827E1
482 505 -6.369830695031127E1
482 551 -3.2124795559380956
483 364 -1.2586610911383723E1
483 450 -2.730619869390569
483 453 -2.9302863224065927
483 471 -4.6509981086120833E-1
483 474 -1.1628416524258576
483 483 1.878129930750684E2
483 488 -2.4317330058449812E1
483 495 5.770119525560219
483 498 4.410723337383827E1
483 506 -6.369830695031127E1
483 552 -3.2124795559380956
483 606 2.419351366484097
484 451 -2.730619869390569
484 454 -2.9302863224065927
484 472 -4.6509981086120833E-1
484 475 -1.1628416524258576
484 484 1.878129930750684E2
484 486 2.419351366484097
484 489 -2.4317330058449812E1
484 491 -1.2586610911383723E1
484 496 5.770119525560219
484 499 4.410723337383827E1
484 507 -6.369830695031127E1
484 553 -3.2124795559380956
485 381 4.610698556805119
485 482 2.419351366484843
485 485 2.8503533733753557E2
485 490 4.3389044386543105
485 492 -6.871565891203272E1
485 505 4.487110808933454E1
485 551 8.195784638455336
485 554 1.8712114925312608
485 600 5.319634965438853
485 603 -1.5881917304784963E1
485 622 -4.3873904404246694E1
485 625 2.8755258222111124E1
486 383 4.610698556805119
486 484 2.419351366484843
486 486 2.8503533733753557E2
486 491 4.3389044386543105
486 493 -6.871565891203272E1
486 507 4.487110808933454E1
486 553 8.195784638455336
486 556 1.8712114925312608
486 602 5.319634965438853
486 605 -1.5881917304784963E1
486 624 -4.3873904404246694E1
486 627 2.8755258222111124E1
487 304 5.169550395360005E-1
487 323 2.5029115359022086E1
487 334 1.393848179964781
487 361 -1.0489318592206587E-2
487 384 6.404469161242616E-1
487 449 -6.630567144768804
487 467 -1.4918800960357999
487 470 1.4554767997341692E1
487 482 -2.431733005844879E1
487 487 1.9363871637001986E2
487 490 5.397306330906922
487 497 -1.1189567579853588
487 505 2.6906801063220264E1
488 278 1.393848179964781
488 305 5.169550395360005E-1
488 324 2.5029115359022086E1
488 362 -1.0489318592206587E-2
488 364 5.397306330906922
488 385 6.404469161242616E-1
488 450 -6.630567144768804
488 468 -1.4918800960357999
488 471 1.4554767997341692E1
488 483 -2.431733005844879E1
488 488 1.9363871637001986E2
488 498 -1.1189567579853588
488 506 2.6906801063220264E1
489 279 1.393848179964781
489 306 5.169550395360005E-1
489 325 2.5029115359022086E1
489 363 -1.0489318592206587E-2
489 386 6.404469161242616E-1
489 451 -6.630567144768804
489 469 -1.4918800960357999
489 472 1.4554767997341692E1
489 484 -2.431733005844879E1
489 489 1.9363871637001986E2
489 491 5.397306330906922
489 499 -1.1189567579853588
489 507 2.6906801063220264E1
490 358 4.223586976601279
490 361 -2.649142280579718E1
490 378 1.6645466106557865E2
490 381 -1.3745890335341142E2
490 384 -1.506215758291061E1
490 482 -1.2586610911383993E1
490 485 4.338904438655902
490 487 5.397306330906879
490 490 4.675025146322832E2
490 492 1.3929060130754372E1
490 505 -6.454302844589994E1
491 360 4.223586976601279
491 363 -2.649142280579718E1
491 380 1.6645466106557865E2
491 383 -1.3745890335341142E2
491 386 -1.506215758291061E1
491 484 -1.2586610911383993E1
491 486 4.338904438655902
491 489 5.397306330906879
491 491 4.675025146322832E2
491 493 1.3929060130754372E1
491 507 -6.454302844589994E1
492 83 1.1957690335580523E1
492 358 8.158846548652008E-1
492 381 -3.6471900117907126E1
492 485 -6.8715658912033E1
492 490 1.3929060130755502E1
492 492 1.1109891887631919E2
492 505 -2.239320697938524
492 603 -2.090343011113518
492 625 1.3003083052052379E1
493 360 8.158846548652008E-1
493 365 1.1957690335580523E1
493 383 -3.6471900117907126E1
493 486 -6.8715658912033E1
493 491 1.3929060130755502E1
493 493 1.1109891887631919E2
493 507 -2.239320697938524
493 605 -2.090343011113518
493 627 1.3003083052052379E1
494 455 -1.6925317745614702E1
494 458 -2.5676473229785044
494 470 -2.7231920294237852
494 473 -3.021150495487654
494 482 5.770119525558428
494 494 5.780725000162615E1
494 505 5.602054233176867
495 456 -1.6925317745614702E1
495 459 -2.5676473229785044
495 471 -2.7231920294237852
495 474 -3.021150495487654
495 483 5.770119525558428
495 495 5.780725000162615E1
495 506 5.602054233176867
496 457 -1.6925317745614702E1
496 460 -2.5676473229785044
496 472 -2.7231920294237852
496 475 -3.021150495487654
496 484 5.770119525558428
496 496 5.780725000162615E1
496 507 5.602054233176867
497 347 -3.0409994906038044E1
497 367 1.8029460318240943E1
497 375 -5.97735339901869E1
497 384 -3.2136613520529785E1
497 458 -2.267440179592028E1
497 467 4.636614576597907
497 470 -2.7015437091943284E1
497 482 4.410723337383827E1
497 487 -1.1189567579852522
497 497 2.132204128071367E2
497 505 -2.2747892867052173E1
498 338 1.8029460318240943E1
498 348 -3.0409994906038044E1
498 376 -5.97735339901869E1
498 385 -3.2136613520529785E1
498 459 -2.267440179592028E1
498 468 4.636614576597907
498 471 -2.7015437091943284E1
498 483 4.410723337383827E1
498 488 -1.1189567579852522
498 498 2.132204128071367E2
498 506 -2.2747892867052173E1
499 339 1.8029460318240943E1
499 349 -3.0409994906038044E1
499 377 -5.97735339901869E1
499 386 -3.2136613520529785E1
499 460 -2.267440179592028E1
499 469 4.636614576597907
499 472 -2.7015437091943284E1
499 484 4.410723337383827E1
499 489 -1.1189567579852522
499 499 2.132204128071367E2
499 507 -2.2747892867052173E1
500 375 -2.029386267792704
500 378 -1.7197571893674972E1
500 458 -3.732097997939206E1
500 461 -8.451109926143992
500 464 -7.50448898481686
500 476 2.487533087229629E1
500 479 -2.4608250921582446E1
500 500 2.5536789327609077E2
500 505 1.5063591012255724E1
500 569 -2.7444371229596882E1
500 613 1.883803931813274E1
501 376 -2.029386267792704
501 379 -1.7197571893674972E1
501 459 -3.732097997939206E1
501 462 -8.451109926143992
501 465 -7.50448898481686
501 477 2.487533087229629E1
501 480 -2.4608250921582446E1
501 501 2.5536789327609077E2
501 503 -2.7444371229596882E1
501 506 1.5063591012255724E1
501 614 1.883803931813274E1
502 377 -2.029386267792704
502 380 -1.7197571893674972E1
502 460 -3.732097997939206E1
502 463 -8.451109926143992
502 466 -7.50448898481686
502 478 2.487533087229629E1
502 481 -2.4608250921582446E1
502 502 2.5536789327609077E2
502 504 -2.7444371229596882E1
502 507 1.5063591012255724E1
502 615 1.883803931813274E1
503 462 -4.262286564192177E-1
503 480 9.762707828915964
503 501 -2.7444371229594392E1
503 503 2.819196867965652E2
503 506 -9.524352571597552
503 537 7.52484758189579
503 543 -1.2780984124969741E1
503 571 -2.7982389119390877E1
503 614 -5.286388649666415E1
503 617 3.8324602499671823
503 623 4.5559003098393276E1
504 463 -4.262286564192177E-1
504 481 9.762707828915964
504 502 -2.7444371229594392E1
504 504 2.819196867965652E2
504 507 -9.524352571597552
504 538 7.52484758189579
504 544 -1.2780984124969741E1
504 572 -2.7982389119390877E1
504 615 -5.286388649666415E1
504 618 3.8324602499671823
504 624 4.5559003098393276E1
505 375 5.917291719560669E1
505 378 -7.134889694436384E1
505 381 5.065159524301877E1
505 384 5.606480566807907E1
505 455 -6.871879840762336
505 458 3.0262665595943602E1
505 461 -5.382604255106742
505 470 -1.0735437073092896E1
505 473 -1.4515577062285745
505 482 -6.3698306950310865E1
505 485 4.487110808933494E1
505 487 2.6906801063220236E1
505 490 -6.454302844590626E1
505 492 -2.239320697938979
505 494 5.60205423317735
505 497 -2.2747892867052204E1
505 500 1.5063591012255724E1
505 505 6.69397474326416E2
505 524 3.1595493703284966E1
505 530 5.809413823094696E1
505 533 -4.411042557125759
505 536 -1.0042141612108617E1
505 539 -7.013143533788296E1
505 551 -2.4060867256420778E1
505 557 9.25594207398986E1
505 569 -9.524352571597452
505 570 2.760381479320168E1
505 613 -5.980848661005104E1
505 619 8.106716593620754E1
505 622 -9.589331204092056E1
506 364 -6.454302844590626E1
506 366 -2.239320697938979
506 376 5.917291719560669E1
506 379 -7.134889694436384E1
506 382 5.065159524301877E1
506 385 5.606480566807907E1
506 456 -6.871879840762336
506 459 3.0262665595943602E1
506 462 -5.382604255106742
506 471 -1.0735437073092896E1
506 474 -1.4515577062285745
506 483 -6.3698306950310865E1
506 488 2.6906801063220236E1
506 495 5.60205423317735
506 498 -2.2747892867052204E1
506 501 1.5063591012255724E1
506 503 -9.524352571597452
506 506 6.69397474326416E2
506 525 3.1595493703284966E1
506 531 5.809413823094696E1
506 534 -4.411042557125759
506 537 -1.0042141612108617E1
506 540 -7.013143533788296E1
506 552 -2.4060867256420778E1
506 558 9.25594207398986E1
506 571 2.760381479320168E1
506 606 4.487110808933494E1
506 614 -5.980848661005104E1
506 620 8.106716593620754E1
506 623 -9.589331204092056E1
507 377 5.917291719560669E1
507 380 -7.134889694436384E1
507 383 5.065159524301877E1
507 386 5.606480566807907E1
507 457 -6.871879840762336
507 460 3.0262665595943602E1
507 463 -5.382604255106742
507 472 -1.0735437073092896E1
507 475 -1.4515577062285745
507 484 -6.3698306950310865E1
507 486 4.487110808933494E1
507 489 2.6906801063220236E1
507 491 -6.454302844590626E1
507 493 -2.239320697938979
507 496 5.60205423317735
507 499 -2.2747892867052204E1
507 502 1.5063591012255724E1
507 504 -9.524352571597452
507 507 6.69397474326416E2
507 526 3.1595493703284966E1
507 532 5.809413823094696E1
507 535 -4.411042557125759
507 538 -1.0042141612108617E1
507 541 -7.013143533788296E1
507 553 -2.4060867256420778E1
507 559 9.25594207398986E1
507 572 2.760381479320168E1
507 615 -5.980848661005104E1
507 621 8.106716593620754E1
507 624 -9.589331204092056E1
508 508 3.9880196588955485E1
508 511 1.626644175777905E-1
508 520 1.0366169153227247
508 521 -1.5754919430185765
508 527 -2.386589875818146
508 557 -5.249041790316051
508 560 -6.2338935689151835
508 563 5.706810398802986
509 509 3.9880196588955485E1
509 512 1.626644175777905E-1
509 522 -1.5754919430185765
509 558 -5.249041790316051
509 561 -6.2338935689151835
509 564 5.706810398802986
509 638 1.0366169153227247
509 641 -2.386589875818146
510 510 3.9880196588955485E1
510 513 1.626644175777905E-1
510 523 -1.5754919430185765
510 559 -5.249041790316051
510 562 -6.2338935689151835
510 565 5.706810398802986
510 639 1.0366169153227247
510 642 -2.386589875818146
511 508 1.626644175778189E-1
511 511 6.73489358042469E1
511 514 -3.034798936328673E1
511 524 -7.580371554624201
511 528 5.792390471360129
511 530 -8.77973913665572E-1
511 533 1.6199211145786878
511 539 -5.846014560979313
511 560 1.0341915289477868
511 563 -3.806290206606491E-1
511 660 6.039028465888375
511 687 -9.525068792264052E-1
511 690 1.1314141660415016
512 509 1.626644175778189E-1
512 512 6.73489358042469E1
512 515 -3.034798936328673E1
512 525 -7.580371554624201
512 529 5.792390471360129
512 531 -8.77973913665572E-1
512 534 1.6199211145786878
512 540 -5.846014560979313
512 561 1.0341915289477868
512 564 -3.806290206606491E-1
512 661 6.039028465888375
512 688 -9.525068792264052E-1
512 691 1.1314141660415016
513 510 1.626644175778189E-1
513 513 6.73489358042469E1
513 516 -3.034798936328673E1
513 526 -7.580371554624201
513 532 -8.77973913665572E-1
513 535 1.6199211145786878
513 541 -5.846014560979313
513 562 1.0341915289477868
513 565 -3.806290206606491E-1
513 662 6.039028465888375
513 685 5.792390471360129
513 689 -9.525068792264052E-1
513 692 1.1314141660415016
514 511 -3.0347989363287752E1
514 514 8.392675214213295E1
514 517 -1.0797076642274117E-1
514 528 -7.05208546014498
514 530 -1.332112766467739
514 533 -2.152402476577345E1
514 536 1.2014527437484446E1
514 566 -1.9625423938011863
514 573 -6.636212450052035
514 678 3.966145833405335
514 687 -6.1641025462088805
514 690 2.6424741441646376
515 512 -3.0347989363287752E1
515 515 8.392675214213295E1
515 518 -1.0797076642274117E-1
515 529 -7.05208546014498
515 531 -1.332112766467739
515 534 -2.152402476577345E1
515 537 1.2014527437484446E1
515 567 -1.9625423938011863
515 574 -6.636212450052035
515 679 3.966145833405335
515 688 -6.1641025462088805
515 691 2.6424741441646376
516 513 -3.0347989363287752E1
516 516 8.392675214213295E1
516 519 -1.0797076642274117E-1
516 532 -1.332112766467739
516 535 -2.152402476577345E1
516 538 1.2014527437484446E1
516 568 -1.9625423938011863
516 575 -6.636212450052035
516 680 3.966145833405335
516 685 -7.05208546014498
516 689 -6.1641025462088805
516 692 2.6424741441646376
517 514 -1.0797076642302539E-1
517 517 2.034762867198188E1
517 542 -9.389058139660751E-1
517 545 -5.298471866214277
517 548 5.031446796305975
517 566 -2.995511199146956
517 570 -1.0571119974186677E1
517 573 6.400646506933514E-1
518 515 -1.0797076642302539E-1
518 518 2.034762867198188E1
518 543 -9.389058139660751E-1
518 546 -5.298471866214277
518 549 5.031446796305975
518 567 -2.995511199146956
518 571 -1.0571119974186677E1
518 574 6.400646506933514E-1
519 516 -1.0797076642302539E-1
519 519 2.034762867198188E1
519 544 -9.389058139660751E-1
519 547 -5.298471866214277
519 550 5.031446796305975
519 568 -2.995511199146956
519 572 -1.0571119974186677E1
519 575 6.400646506933514E-1
520 508 1.0366169153227816
520 520 7.319858605029142E1
520 527 -6.815284753293429E1
520 554 -1.494887148026993E1
520 557 9.619693117792849E-1
520 635 2.340422881238112
520 643 -6.092239710128553
521 452 -2.030338630167485
521 473 -3.946845107344359E-1
521 508 -1.5754919430189176
521 521 1.503060660154675E1
521 539 1.9136502357319955E1
521 551 -2.3504231139024014
521 557 4.983341360449263
521 563 -5.229159221359698
522 453 -2.030338630167485
522 474 -3.946845107344359E-1
522 509 -1.5754919430189176
522 522 1.503060660154675E1
522 540 1.9136502357319955E1
522 552 -2.3504231139024014
522 558 4.983341360449263
522 564 -5.229159221359698
523 454 -2.030338630167485
523 475 -3.946845107344359E-1
523 510 -1.5754919430189176
523 523 1.503060660154675E1
523 541 1.9136502357319955E1
523 553 -2.3504231139024014
523 559 4.983341360449263
523 565 -5.229159221359698
524 505 3.1595493703283765E1
524 511 -7.580371554623466
524 524 3.359064749978672E2
524 527 -2.8576247276592994
524 528 1.2949204586420962
524 530 -1.8006427959090468E2
524 533 2.3083673003744252E1
524 539 -3.490713730817042
524 554 1.7317984557993493
524 557 1.5491464921124853E1
524 560 -2.8097397039761418E1
524 579 -1.862427555195751
524 584 -7.406767259232341
524 622 -2.963882744148949E1
524 643 5.493674610043438
524 654 2.209071754344677
524 682 -1.0042609889176406
524 690 -1.979467478451842E1
525 506 3.1595493703283765E1
525 512 -7.580371554623466
525 525 3.359064749978672E2
525 529 1.2949204586420962
525 531 -1.8006427959090468E2
525 534 2.3083673003744252E1
525 540 -3.490713730817042
525 555 1.7317984557993493
525 558 1.5491464921124853E1
525 561 -2.8097397039761418E1
525 580 -1.862427555195751
525 585 -7.406767259232341
525 623 -2.963882744148949E1
525 641 -2.8576247276592994
525 644 5.493674610043438
525 655 2.209071754344677
525 683 -1.0042609889176406
525 691 -1.979467478451842E1
526 507 3.1595493703283765E1
526 513 -7.580371554623466
526 526 3.359064749978672E2
526 532 -1.8006427959090468E2
526 535 2.3083673003744252E1
526 541 -3.490713730817042
526 556 1.7317984557993493
526 559 1.5491464921124853E1
526 562 -2.8097397039761418E1
526 581 -1.862427555195751
526 586 -7.406767259232341
526 624 -2.963882744148949E1
526 642 -2.8576247276592994
526 645 5.493674610043438
526 656 2.209071754344677
526 684 -1.0042609889176406
526 685 1.2949204586420962
526 692 -1.979467478451842E1
527 508 -2.386589875818089
527 520 -6.81528475329344E1
527 524 -2.857624727659413
527 527 1.0782048226420044E2
527 554 3.9107605701931933
527 557 -1.0866525988372587E1
527 560 2.788794702109609
527 643 1.0430149028385209E1
528 511 5.792390471360129
528 514 -7.0520854601456335
528 524 1.2949204586411298
528 528 6.909995069665756E1
528 530 -2.8062837099498587E1
528 678 1.6054888704294399
528 682 2.2262624258183075
528 687 -4.805683015457306
528 690 -1.892989737899262E1
528 693 1.346068865827057E-1
529 512 5.792390471360129
529 515 -7.0520854601456335
529 525 1.2949204586411298
529 529 6.909995069665756E1
529 531 -2.8062837099498587E1
529 679 1.6054888704294399
529 683 2.2262624258183075
529 688 -4.805683015457306
529 691 -1.892989737899262E1
529 694 1.346068865827057E-1
530 505 5.809413823094677E1
530 511 -8.779739136655306E-1
530 514 -1.3321127664677532
530 524 -1.8006427959090485E2
530 528 -2.806283709949856E1
530 530 4.2932830052647864E2
530 533 -6.253783891352539
530 536 8.122597093256392E-1
530 548 -7.247818399872072
530 570 2.0240557386558176E1
530 573 6.430431647063237E-1
530 584 9.520600169155351
530 597 -1.2997225929506897E1
530 616 4.902210300633587E-1
530 622 -5.651797729904729E1
530 682 -1.4127034729292784E-1
531 506 5.809413823094677E1
531 512 -8.779739136655306E-1
531 515 -1.3321127664677532
531 525 -1.8006427959090485E2
531 529 -2.806283709949856E1
531 531 4.2932830052647864E2
531 534 -6.253783891352539
531 537 8.122597093256392E-1
531 549 -7.247818399872072
531 571 2.0240557386558176E1
531 574 6.430431647063237E-1
531 585 9.520600169155351
531 598 -1.2997225929506897E1
531 617 4.902210300633587E-1
531 623 -5.651797729904729E1
531 683 -1.4127034729292784E-1
532 507 5.809413823094677E1
532 513 -8.779739136655306E-1
532 516 -1.3321127664677532
532 526 -1.8006427959090485E2
532 532 4.2932830052647864E2
532 535 -6.253783891352539
532 538 8.122597093256392E-1
532 550 -7.247818399872072
532 572 2.0240557386558176E1
532 575 6.430431647063237E-1
532 586 9.520600169155351
532 599 -1.2997225929506897E1
532 618 4.902210300633587E-1
532 624 -5.651797729904729E1
532 684 -1.4127034729292784E-1
532 685 -2.806283709949856E1
533 455 -5.436689109308291
533 473 -2.6438968380196384
533 505 -4.411042557125938
533 511 1.6199211145786878
533 514 -2.152402476577357E1
533 524 2.308367300374448E1
533 530 -6.2537838913527635
533 533 2.376838736654555E2
533 536 -3.1899568087954833E1
533 539 -1.394067859824413E2
534 456 -5.436689109308291
534 474 -2.6438968380196384
534 506 -4.411042557125938
534 512 1.6199211145786878
534 515 -2.152402476577357E1
534 525 2.308367300374448E1
534 531 -6.2537838913527635
534 534 2.376838736654555E2
534 537 -3.1899568087954833E1
534 540 -1.394067859824413E2
535 457 -5.436689109308291
535 475 -2.6438968380196384
535 507 -4.411042557125938
535 513 1.6199211145786878
535 516 -2.152402476577357E1
535 526 2.308367300374448E1
535 532 -6.2537838913527635
535 535 2.376838736654555E2
535 538 -3.1899568087954833E1
535 541 -1.394067859824413E2
536 455 9.133173013035123
536 461 3.0206390653101876
536 505 -1.0042141612108304E1
536 514 1.2014527437485356E1
536 530 8.122597093255264E-1
536 533 -3.1899568087954748E1
536 536 1.2161336118599286E2
536 542 -1.4235422501155927E1
536 566 -1.3560484165753655E1
536 569 7.524847581895743
536 570 1.1920976202155941E1
536 573 3.064310161089338
537 456 9.133173013035123
537 462 3.0206390653101876
537 503 7.524847581895743
537 506 -1.0042141612108304E1
537 515 1.2014527437485356E1
537 531 8.122597093255264E-1
537 534 -3.1899568087954748E1
537 537 1.2161336118599286E2
537 543 -1.4235422501155927E1
537 567 -1.3560484165753655E1
537 571 1.1920976202155941E1
537 574 3.064310161089338
538 457 9.133173013035123
538 463 3.0206390653101876
538 504 7.524847581895743
538 507 -1.0042141612108304E1
538 516 1.2014527437485356E1
538 532 8.122597093255264E-1
538 535 -3.1899568087954748E1
538 538 1.2161336118599286E2
538 544 -1.4235422501155927E1
538 568 -1.3560484165753655E1
538 572 1.1920976202155941E1
538 575 3.064310161089338
539 473 3.9934982995417805
539 505 -7.013143533788255E1
539 511 -5.846014560978347
539 521 1.9136502357320012E1
539 524 -3.490713730817113
539 533 -1.3940678598244085E2
539 539 2.725940759471704E2
539 551 1.2882348805026012E1
539 557 -5.955294766763709E1
539 560 9.066122412460004
539 563 -2.250596312922383E1
540 474 3.9934982995417805
540 506 -7.013143533788255E1
540 512 -5.846014560978347
540 522 1.9136502357320012E1
540 525 -3.490713730817113
540 534 -1.3940678598244085E2
540 540 2.725940759471704E2
540 552 1.2882348805026012E1
540 558 -5.955294766763709E1
540 561 9.066122412460004
540 564 -2.250596312922383E1
541 475 3.9934982995417805
541 507 -7.013143533788255E1
541 513 -5.846014560978347
541 523 1.9136502357320012E1
541 526 -3.490713730817113
541 535 -1.3940678598244085E2
541 541 2.725940759471704E2
541 553 1.2882348805026012E1
541 559 -5.955294766763709E1
541 562 9.066122412460004
541 565 -2.250596312922383E1
542 461 -9.633881977037442
542 479 -3.7023454576708383
542 517 -9.389058139660609E-1
542 536 -1.423542250115614E1
542 542 2.693729040011891E1
542 566 1.7625814523666037
542 569 -1.2780984124969855E1
542 570 7.555113932739509
543 462 -9.633881977037442
543 480 -3.7023454576708383
543 503 -1.2780984124969855E1
543 518 -9.389058139660609E-1
543 537 -1.423542250115614E1
543 543 2.693729040011891E1
543 567 1.7625814523666037
543 571 7.555113932739509
544 463 -9.633881977037442
544 481 -3.7023454576708383
544 504 -1.2780984124969855E1
544 519 -9.389058139660609E-1
544 538 -1.423542250115614E1
544 544 2.693729040011891E1
544 568 1.7625814523666037
544 572 7.555113932739509
545 517 -5.29847186621426
545 545 6.461952219648101E1
545 548 -6.95458229464172E1
545 570 3.986273826369967
545 588 1.3158972047126682
545 597 1.0995612109026476
545 616 -1.1854131092530167
546 518 -5.29847186621426
546 546 6.461952219648101E1
546 549 -6.95458229464172E1
546 571 3.986273826369967
546 589 1.3158972047126682
546 598 1.0995612109026476
546 617 -1.1854131092530167
547 519 -5.29847186621426
547 547 6.461952219648101E1
547 550 -6.95458229464172E1
547 572 3.986273826369967
547 590 1.3158972047126682
547 599 1.0995612109026476
547 618 -1.1854131092530167
548 517 5.031446796306131
548 530 -7.247818399872058
548 545 -6.954582294641715E1
548 548 9.702158980943155E1
548 570 -1.1439602244140632E1
548 573 -1.5348740680488987E1
548 597 -1.950849332734143
548 616 3.138989203035247
549 518 5.031446796306131
549 531 -7.247818399872058
549 546 -6.954582294641715E1
549 549 9.702158980943155E1
549 571 -1.1439602244140632E1
549 574 -1.5348740680488987E1
549 598 -1.950849332734143
549 617 3.138989203035247
550 519 5.031446796306131
550 532 -7.247818399872058
550 547 -6.954582294641715E1
550 550 9.702158980943155E1
550 572 -1.1439602244140632E1
550 575 -1.5348740680488987E1
550 599 -1.950849332734143
550 618 3.138989203035247
551 452 -7.401245184358096
551 473 3.209876187851925E1
551 482 -3.212479555939005
551 485 8.195784638456132
551 505 -2.4060867256420124E1
551 521 -2.350423113902366
551 539 1.2882348805026282E1
551 551 1.6711257959480088E2
551 554 1.2345824177487344E1
551 557 -2.0288689052939347E1
551 622 2.249264256751246
552 453 -7.401245184358096
552 474 3.209876187851925E1
552 483 -3.212479555939005
552 506 -2.4060867256420124E1
552 522 -2.350423113902366
552 540 1.2882348805026282E1
552 552 1.6711257959480088E2
552 555 1.2345824177487344E1
552 558 -2.0288689052939347E1
552 606 8.195784638456132
552 623 2.249264256751246
553 454 -7.401245184358096
553 475 3.209876187851925E1
553 484 -3.212479555939005
553 486 8.195784638456132
553 507 -2.4060867256420124E1
553 523 -2.350423113902366
553 541 1.2882348805026282E1
553 553 1.6711257959480088E2
553 556 1.2345824177487344E1
553 559 -2.0288689052939347E1
553 624 2.249264256751246
554 485 1.8712114925322556
554 520 -1.4948871480269986E1
554 524 1.7317984557966077
554 527 3.910760570194052
554 551 1.2345824177487572E1
554 554 1.2034357189639368E2
554 557 -5.729430690010815
554 579 -2.250515169659678E1
554 600 -2.4018882410715054
554 622 -1.91671367170631E1
554 635 5.156729670765117E-1
554 643 -2.1740881500518697E1
555 525 1.7317984557966077
555 552 1.2345824177487572E1
555 555 1.2034357189639368E2
555 558 -5.729430690010815
555 580 -2.250515169659678E1
555 601 -2.4018882410715054
555 606 1.8712114925322556
555 623 -1.91671367170631E1
555 636 5.156729670765117E-1
555 638 -1.4948871480269986E1
555 641 3.910760570194052
555 644 -2.1740881500518697E1
556 486 1.8712114925322556
556 526 1.7317984557966077
556 553 1.2345824177487572E1
556 556 1.2034357189639368E2
556 559 -5.729430690010815
556 581 -2.250515169659678E1
556 602 -2.4018882410715054
556 624 -1.91671367170631E1
556 637 5.156729670765117E-1
556 639 -1.4948871480269986E1
556 642 3.910760570194052
556 645 -2.1740881500518697E1
557 505 9.25594207398988E1
557 508 -5.249041790315596
557 520 9.619693117795123E-1
557 521 4.983341360449444
557 524 1.549146492112491E1
557 527 -1.0866525988372587E1
557 539 -5.955294766763729E1
557 551 -2.028868905293662E1
557 554 -5.729430690012123
557 557 2.4781374990888742E2
557 560 -1.1314316865605903E1
557 563 -1.2713270625860467E1
557 622 -2.5228838305866248E1
558 506 9.25594207398988E1
558 509 -5.249041790315596
558 522 4.983341360449444
558 525 1.549146492112491E1
558 540 -5.955294766763729E1
558 552 -2.028868905293662E1
558 555 -5.729430690012123
558 558 2.4781374990888742E2
558 561 -1.1314316865605903E1
558 564 -1.2713270625860467E1
558 623 -2.5228838305866248E1
558 638 9.619693117795123E-1
558 641 -1.0866525988372587E1
559 507 9.25594207398988E1
559 510 -5.249041790315596
559 523 4.983341360449444
559 526 1.549146492112491E1
559 541 -5.955294766763729E1
559 553 -2.028868905293662E1
559 556 -5.729430690012123
559 559 2.4781374990888742E2
559 562 -1.1314316865605903E1
559 565 -1.2713270625860467E1
559 624 -2.5228838305866248E1
559 639 9.619693117795123E-1
559 642 -1.0866525988372587E1
560 508 -6.233893568915439
560 511 1.0341915289478578
560 524 -2.8097397039761383E1
560 527 2.7887947021092963
560 539 9.066122412460004
560 557 -1.1314316865606358E1
560 560 1.0634199454262895E2
560 563 -8.474651436415996
561 509 -6.233893568915439
561 512 1.0341915289478578
561 525 -2.8097397039761383E1
561 540 9.066122412460004
561 558 -1.1314316865606358E1
561 561 1.0634199454262895E2
561 564 -8.474651436415996
561 641 2.7887947021092963
562 510 -6.233893568915439
562 513 1.0341915289478578
562 526 -2.8097397039761383E1
562 541 9.066122412460004
562 559 -1.1314316865606358E1
562 562 1.0634199454262895E2
562 565 -8.474651436415996
562 642 2.7887947021092963
563 508 5.706810398802077
563 511 -3.806290206606491E-1
563 521 -5.229159221359442
563 539 -2.2505963129223147E1
563 557 -1.2713270625860638E1
563 560 -8.474651436416224
563 563 7.079623246984579E1
564 509 5.706810398802077
564 512 -3.806290206606491E-1
564 522 -5.229159221359442
564 540 -2.2505963129223147E1
564 558 -1.2713270625860638E1
564 561 -8.474651436416224
564 564 7.079623246984579E1
565 510 5.706810398802077
565 513 -3.806290206606491E-1
565 523 -5.229159221359442
565 541 -2.2505963129223147E1
565 559 -1.2713270625860638E1
565 562 -8.474651436416224
565 565 7.079623246984579E1
566 514 -1.9625423938011863
566 517 -2.9955111991471193
566 536 -1.3560484165753097E1
566 542 1.762581452367609
566 566 4.8542702778930895E1
566 570 1.2186623414879186E1
566 573 3.2027948367419605
567 515 -1.9625423938011863
567 518 -2.9955111991471193
567 537 -1.3560484165753097E1
567 543 1.762581452367609
567 567 4.8542702778930895E1
567 571 1.2186623414879186E1
567 574 3.2027948367419605
568 516 -1.9625423938011863
568 519 -2.9955111991471193
568 538 -1.3560484165753097E1
568 544 1.762581452367609
568 568 4.8542702778930895E1
568 572 1.2186623414879186E1
568 575 3.2027948367419605
569 461 -4.262286564192177E-1
569 479 9.762707828915964
569 500 -2.7444371229594392E1
569 505 -9.524352571597552
569 536 7.52484758189579
569 542 -1.2780984124969741E1
569 569 2.819196867965652E2
569 570 -2.7982389119390877E1
569 613 -5.286388649666415E1
569 616 3.8324602499671823
569 622 4.5559003098393276E1
570 505 2.7603814793201757E1
570 517 -1.057111997418662E1
570 530 2.0240557386557935E1
570 536 1.1920976202155927E1
570 542 7.555113932739381
570 545 3.986273826369967
570 548 -1.1439602244140774E1
570 566 1.2186623414879172E1
570 569 -2.7982389119393886E1
570 570 1.7462515273501964E2
570 573 6.421766425792974E-1
570 616 -2.481529074481299E1
570 622 7.346950560981824E-1
571 503 -2.7982389119393886E1
571 506 2.7603814793201757E1
571 518 -1.057111997418662E1
571 531 2.0240557386557935E1
571 537 1.1920976202155927E1
571 543 7.555113932739381
571 546 3.986273826369967
571 549 -1.1439602244140774E1
571 567 1.2186623414879172E1
571 571 1.7462515273501964E2
571 574 6.421766425792974E-1
571 617 -2.481529074481299E1
571 623 7.346950560981824E-1
572 504 -2.7982389119393886E1
572 507 2.7603814793201757E1
572 519 -1.057111997418662E1
572 532 2.0240557386557935E1
572 538 1.1920976202155927E1
572 544 7.555113932739381
572 547 3.986273826369967
572 550 -1.1439602244140774E1
572 568 1.2186623414879172E1
572 572 1.7462515273501964E2
572 575 6.421766425792974E-1
572 618 -2.481529074481299E1
572 624 7.346950560981824E-1
573 514 -6.6362124500519215
573 517 6.400646506930032E-1
573 530 6.430431647065618E-1
573 536 3.0643101610888834
573 548 -1.5348740680488945E1
573 566 3.2027948367413566
573 570 6.421766425787006E-1
573 573 7.523839913630223E1
574 515 -6.6362124500519215
574 518 6.400646506930032E-1
574 531 6.430431647065618E-1
574 537 3.0643101610888834
574 549 -1.5348740680488945E1
574 567 3.2027948367413566
574 571 6.421766425787006E-1
574 574 7.523839913630223E1
575 516 -6.6362124500519215
575 519 6.400646506930032E-1
575 532 6.430431647065618E-1
575 538 3.0643101610888834
575 550 -1.5348740680488945E1
575 568 3.2027948367413566
575 572 6.421766425787006E-1
575 575 7.523839913630223E1
576 576 4.770901553657086E1
576 582 -3.549812086083534E1
576 600 1.7826987983219112E1
576 635 2.7827741490709172
576 829 5.930091533916652
576 838 -1.1108330012605563E1
576 873 -4.111565038265724
577 577 4.770901553657086E1
577 583 -3.549812086083534E1
577 601 1.7826987983219112E1
577 636 2.7827741490709172
577 830 5.930091533916652
577 839 -1.1108330012605563E1
577 874 -4.111565038265724
578 578 7.686413011586551E2
578 579 1.3003468920497696E1
578 582 -4.278138113972565E1
578 587 -4.5074484903961843E2
578 600 -9.272992437429536E1
578 622 4.246783680535228E1
578 625 4.2725708228271195E1
578 653 1.0176386974853386E1
578 681 1.922648241230334
578 835 1.7885792201729146E1
578 838 -1.5333892202255257E1
578 847 9.909902006705089
578 873 -3.7245849311287714E1
578 883 1.4793458094149889E1
578 912 -1.161375565888525E1
579 524 -1.8624275551957794
579 554 -2.250515169659624E1
579 578 1.300346892049728E1
579 579 2.6404003194240966E2
579 582 -3.075435226078246E1
579 584 -6.516785309897372E1
579 587 1.653028333775256E1
579 600 1.4949069017302545E1
579 622 1.2739668147155044E1
579 643 -2.0324589140997574E1
579 653 4.888137564988284E-1
579 654 1.3659614149367982
579 681 2.9843287113813837
579 682 -1.2596929498671031E1
580 525 -1.8624275551957794
580 555 -2.250515169659624E1
580 580 2.6404003194240966E2
580 583 -3.075435226078246E1
580 585 -6.516785309897372E1
580 601 1.4949069017302545E1
580 623 1.2739668147155044E1
580 644 -2.0324589140997574E1
580 655 1.3659614149367982
580 683 -1.2596929498671031E1
580 892 1.300346892049728E1
580 915 4.888137564988284E-1
580 953 2.9843287113813837
580 956 1.653028333775256E1
581 526 -1.8624275551957794
581 556 -2.250515169659624E1
581 581 2.6404003194240966E2
581 586 -6.516785309897372E1
581 602 1.4949069017302545E1
581 624 1.2739668147155044E1
581 640 1.300346892049728E1
581 645 -2.0324589140997574E1
581 646 -3.075435226078246E1
581 656 1.3659614149367982
581 684 -1.2596929498671031E1
581 686 1.653028333775256E1
581 916 4.888137564988284E-1
581 954 2.9843287113813837
582 576 -3.5498120860835115E1
582 578 -4.278138113972906E1
582 579 -3.0754352260783925E1
582 582 1.4265594310025062E2
582 600 -4.620497297129643E1
582 622 3.2213858878396984E1
582 635 -3.7911420910598963
582 643 2.9620197541957793
582 838 3.6169843788595415
582 873 2.1285147459413395E1
583 577 -3.5498120860835115E1
583 580 -3.0754352260783925E1
583 583 1.4265594310025062E2
583 601 -4.620497297129643E1
583 623 3.2213858878396984E1
583 636 -3.7911420910598963
583 644 2.9620197541957793
583 839 3.6169843788595415
583 874 2.1285147459413395E1
583 892 -4.278138113972906E1
584 524 -7.406767259232469
584 530 9.520600169155536
584 579 -6.51678530989735E1
584 584 1.9137511906858634E2
584 587 4.8294096709151795
584 594 -2.4990585993343462E1
584 597 -1.0697260408749258E1
584 607 2.2047083766650952
584 616 1.911643201404875E1
584 622 -1.0381626755364252E1
584 681 -2.5988900009994287E-1
584 682 -1.0933629814282142E1
585 525 -7.406767259232469
585 531 9.520600169155536
585 580 -6.51678530989735E1
585 585 1.9137511906858634E2
585 595 -2.4990585993343462E1
585 598 -1.0697260408749258E1
585 608 2.2047083766650952
585 617 1.911643201404875E1
585 623 -1.0381626755364252E1
585 683 -1.0933629814282142E1
585 953 -2.5988900009994287E-1
585 956 4.8294096709151795
586 526 -7.406767259232469
586 532 9.520600169155536
586 581 -6.51678530989735E1
586 586 1.9137511906858634E2
586 596 -2.4990585993343462E1
586 599 -1.0697260408749258E1
586 609 2.2047083766650952
586 618 1.911643201404875E1
586 624 -1.0381626755364252E1
586 684 -1.0933629814282142E1
586 686 4.8294096709151795
586 954 -2.5988900009994287E-1
587 578 -4.5074484903961775E2
587 579 1.6530283337752547E1
587 584 4.829409670914703
587 587 8.498861530518401E2
587 594 -6.795794652743005
587 607 6.799135845073098E1
587 622 9.34528426019268
587 625 3.982164484595456E1
587 681 -7.942985707128902
587 847 1.0319976667677503E1
587 865 -3.221650316289372E1
587 880 -5.901869229512407
587 883 -6.391743490977874E1
587 912 2.1605666302256136E1
587 950 -5.155515215055851
588 545 1.3158972047126984
588 588 4.026735541756596E1
588 591 2.1625003067770887
588 594 -5.729423405811438
588 597 -3.382844420265082E1
588 607 -4.827264073521761
588 616 1.2107262259351401
589 546 1.3158972047126984
589 589 4.026735541756596E1
589 592 2.1625003067770887
589 595 -5.729423405811438
589 598 -3.382844420265082E1
589 608 -4.827264073521761
589 617 1.2107262259351401
590 547 1.3158972047126984
590 590 4.026735541756596E1
590 593 2.1625003067770887
590 596 -5.729423405811438
590 599 -3.382844420265082E1
590 609 -4.827264073521761
590 618 1.2107262259351401
591 588 2.1625003067769395
591 591 2.2663662800990117E1
591 594 -2.2680781815416793E1
591 607 -5.100176200699337
591 853 7.51025527164832E-1
591 865 -6.657524739909424E-1
591 880 5.234257663714964E-1
592 589 2.1625003067769395
592 592 2.2663662800990117E1
592 595 -2.2680781815416793E1
592 608 -5.100176200699337
592 854 7.51025527164832E-1
592 866 -6.657524739909424E-1
592 881 5.234257663714964E-1
593 590 2.1625003067769395
593 593 2.2663662800990117E1
593 596 -2.2680781815416793E1
593 609 -5.100176200699337
593 855 7.51025527164832E-1
593 867 -6.657524739909424E-1
593 882 5.234257663714964E-1
594 584 -2.4990585993343473E1
594 587 -6.795794652743517
594 588 -5.729423405811055
594 591 -2.2680781815416196E1
594 594 1.3995093229084245E2
594 597 -5.990976999465507E-1
594 607 3.6006679144389153E-1
594 622 1.7671364428649326E1
594 865 9.904005638019759E-1
594 880 8.089795406336062E-1
595 585 -2.4990585993343473E1
595 589 -5.729423405811055
595 592 -2.2680781815416196E1
595 595 1.3995093229084245E2
595 598 -5.990976999465507E-1
595 608 3.6006679144389153E-1
595 623 1.7671364428649326E1
595 866 9.904005638019759E-1
595 881 8.089795406336062E-1
595 956 -6.795794652743517
596 586 -2.4990585993343473E1
596 590 -5.729423405811055
596 593 -2.2680781815416196E1
596 596 1.3995093229084245E2
596 599 -5.990976999465507E-1
596 609 3.6006679144389153E-1
596 624 1.7671364428649326E1
596 686 -6.795794652743517
596 867 9.904005638019759E-1
596 882 8.089795406336062E-1
597 530 -1.2997225929506783E1
597 545 1.099561210902605
597 548 -1.950849332734111
597 584 -1.0697260408748122E1
597 588 -3.382844420265095E1
597 594 -5.990976999455524E-1
597 597 5.985180161129104E1
597 607 6.447348081740997
597 616 -1.755053666781668
598 531 -1.2997225929506783E1
598 546 1.099561210902605
598 549 -1.950849332734111
598 585 -1.0697260408748122E1
598 589 -3.382844420265095E1
598 595 -5.990976999455524E-1
598 598 5.985180161129104E1
598 608 6.447348081740997
598 617 -1.755053666781668
599 532 -1.2997225929506783E1
599 547 1.099561210902605
599 550 -1.950849332734111
599 586 -1.0697260408748122E1
599 590 -3.382844420265095E1
599 596 -5.990976999455524E-1
599 599 5.985180161129104E1
599 609 6.447348081740997
599 618 -1.755053666781668
600 485 5.319634965438938
600 554 -2.4018882410714912
600 576 1.782698798321877E1
600 578 -9.272992437429515E1
600 579 1.4949069017302623E1
600 582 -4.62049729712987E1
600 600 2.338638981899684E2
600 603 -6.549112522014269
600 622 -7.290353083041956E1
600 625 -1.4720812573810065
600 635 -1.2371747336995412E1
600 643 -1.9988201864302937
600 873 -1.2356603663379957E1
601 555 -2.4018882410714912
601 577 1.782698798321877E1
601 580 1.4949069017302623E1
601 583 -4.62049729712987E1
601 601 2.338638981899684E2
601 604 -6.549112522014269
601 606 5.319634965438938
601 623 -7.290353083041956E1
601 626 -1.4720812573810065
601 636 -1.2371747336995412E1
601 644 -1.9988201864302937
601 874 -1.2356603663379957E1
601 892 -9.272992437429515E1
602 486 5.319634965438938
602 556 -2.4018882410714912
602 581 1.4949069017302623E1
602 602 2.338638981899684E2
602 605 -6.549112522014269
602 624 -7.290353083041956E1
602 627 -1.4720812573810065
602 634 1.782698798321877E1
602 637 -1.2371747336995412E1
602 640 -9.272992437429515E1
602 645 -1.9988201864302937
602 646 -4.62049729712987E1
602 875 -1.2356603663379957E1
603 83 5.801358064704278
603 485 -1.588191730478195E1
603 492 -2.0903430111146832
603 600 -6.549112522015008
603 603 8.07622014113723E1
603 622 2.5502779523067048E1
603 625 -2.722143166752288E1
603 868 2.2501135978323568
603 873 -2.414478204592527
604 366 -2.0903430111146832
604 427 5.801358064704278
604 601 -6.549112522015008
604 604 8.07622014113723E1
604 606 -1.588191730478195E1
604 623 2.5502779523067048E1
604 626 -2.722143166752288E1
604 869 2.2501135978323568
604 874 -2.414478204592527
605 365 5.801358064704278
605 426 2.2501135978323568
605 486 -1.588191730478195E1
605 493 -2.0903430111146832
605 602 -6.549112522015008
605 605 8.07622014113723E1
605 624 2.5502779523067048E1
605 627 -2.722143166752288E1
605 875 -2.414478204592527
606 364 4.3389044386543105
606 366 -6.871565891203272E1
606 382 4.610698556805119
606 483 2.419351366484843
606 506 4.487110808933454E1
606 552 8.195784638455336
606 555 1.8712114925312608
606 601 5.319634965438853
606 604 -1.5881917304784963E1
606 606 2.8503533733753557E2
606 623 -4.3873904404246694E1
606 626 2.8755258222111124E1
607 584 2.204708376665293
607 587 6.799135845073158E1
607 588 -4.827264073522031
607 591 -5.100176200699167
607 594 3.600667914432094E-1
607 597 6.44734808174104
607 607 4.5840265218762573E2
607 610 -7.79387717452387E1
607 613 9.922280179610397
607 616 -3.8597743870470076E1
607 622 1.0163423363836785E1
607 625 1.5563134581586011E1
607 880 -3.7858769972884446E1
608 585 2.204708376665293
608 589 -4.827264073522031
608 592 -5.100176200699167
608 595 3.600667914432094E-1
608 598 6.44734808174104
608 608 4.5840265218762573E2
608 611 -7.79387717452387E1
608 614 9.922280179610397
608 617 -3.8597743870470076E1
608 623 1.0163423363836785E1
608 626 1.5563134581586011E1
608 881 -3.7858769972884446E1
608 956 6.799135845073158E1
609 586 2.204708376665293
609 590 -4.827264073522031
609 593 -5.100176200699167
609 596 3.600667914432094E-1
609 599 6.44734808174104
609 609 4.5840265218762573E2
609 612 -7.79387717452387E1
609 615 9.922280179610397
609 618 -3.8597743870470076E1
609 624 1.0163423363836785E1
609 627 1.5563134581586011E1
609 686 6.799135845073158E1
609 882 -3.7858769972884446E1
610 85 -1.5627830693853769E1
610 607 -7.79387717452396E1
610 610 2.090660870129109E2
610 613 -2.174641658136009E1
610 619 -2.522797938509358E1
610 622 2.080462961849369E1
610 625 -5.2832648127763676E1
610 745 -1.1612917367825668E1
610 880 3.153558539988731
611 86 -1.5627830693853769E1
611 608 -7.79387717452396E1
611 611 2.090660870129109E2
611 614 -2.174641658136009E1
611 620 -2.522797938509358E1
611 623 2.080462961849369E1
611 626 -5.2832648127763676E1
611 876 -1.1612917367825668E1
611 881 3.153558539988731
612 87 -1.5627830693853769E1
612 609 -7.79387717452396E1
612 612 2.090660870129109E2
612 615 -2.174641658136009E1
612 621 -2.522797938509358E1
612 624 2.080462961849369E1
612 627 -5.2832648127763676E1
612 746 -1.1612917367825668E1
612 882 3.153558539988731
613 378 -2.1853382234662138
613 381 3.8508743880461713
613 500 1.8838039318132626E1
613 505 -5.980848661005182E1
613 569 -5.286388649666452E1
613 607 9.922280179610375
613 610 -2.174641658135854E1
613 613 3.3789159036929E2
613 616 -2.5771781288607755E1
613 619 -1.4432524501807984E2
613 622 -2.041246654876693E1
613 625 2.1284119045322576E1
614 379 -2.1853382234662138
614 382 3.8508743880461713
614 501 1.8838039318132626E1
614 503 -5.286388649666452E1
614 506 -5.980848661005182E1
614 608 9.922280179610375
614 611 -2.174641658135854E1
614 614 3.3789159036929E2
614 617 -2.5771781288607755E1
614 620 -1.4432524501807984E2
614 623 -2.041246654876693E1
614 626 2.1284119045322576E1
615 380 -2.1853382234662138
615 383 3.8508743880461713
615 502 1.8838039318132626E1
615 504 -5.286388649666452E1
615 507 -5.980848661005182E1
615 609 9.922280179610375
615 612 -2.174641658135854E1
615 615 3.3789159036929E2
615 618 -2.5771781288607755E1
615 621 -1.4432524501807984E2
615 624 -2.041246654876693E1
615 627 2.1284119045322576E1
616 530 4.9022103006242435E-1
616 545 -1.1854131092530131
616 548 3.1389892030352504
616 569 3.832460249966859
616 570 -2.4815290744813243E1
616 584 1.911643201404874E1
616 588 1.2107262259351401
616 597 -1.755053666783452
616 607 -3.859774387046962E1
616 613 -2.5771781288606974E1
616 616 1.4381084378359316E2
616 622 -6.981535672896868
617 503 3.832460249966859
617 531 4.9022103006242435E-1
617 546 -1.1854131092530131
617 549 3.1389892030352504
617 571 -2.4815290744813243E1
617 585 1.911643201404874E1
617 589 1.2107262259351401
617 598 -1.755053666783452
617 608 -3.859774387046962E1
617 614 -2.5771781288606974E1
617 617 1.4381084378359316E2
617 623 -6.981535672896868
618 504 3.832460249966859
618 532 4.9022103006242435E-1
618 547 -1.1854131092530131
618 550 3.1389892030352504
618 572 -2.4815290744813243E1
618 586 1.911643201404874E1
618 590 1.2107262259351401
618 599 -1.755053666783452
618 609 -3.859774387046962E1
618 615 -2.5771781288606974E1
618 618 1.4381084378359316E2
618 624 -6.981535672896868
619 85 -2.331401972202096E1
619 368 -6.643149434910915
619 378 7.398585346880104
619 381 -5.1537871165852344E1
619 505 8.106716593620638E1
619 610 -2.522797938509014E1
619 613 -1.4432524501808348E2
619 619 3.472804417989386E2
619 625 6.1057634731713414E1
620 86 -2.331401972202096E1
620 369 -6.643149434910915
620 379 7.398585346880104
620 382 -5.1537871165852344E1
620 506 8.106716593620638E1
620 611 -2.522797938509014E1
620 614 -1.4432524501808348E2
620 620 3.472804417989386E2
620 626 6.1057634731713414E1
621 87 -2.331401972202096E1
621 370 -6.643149434910915
621 380 7.398585346880104
621 383 -5.1537871165852344E1
621 507 8.106716593620638E1
621 612 -2.522797938509014E1
621 615 -1.4432524501808348E2
621 621 3.472804417989386E2
621 627 6.1057634731713414E1
622 381 -6.421243225882255
622 485 -4.387390440424567E1
622 505 -9.589331204092132E1
622 524 -2.9638827441489717E1
622 530 -5.6517977299047885E1
622 551 2.249264256751246
622 554 -1.916713671706242E1
622 557 -2.5228838305865736E1
622 569 4.555900309839336E1
622 570 7.346950560990972E-1
622 578 4.246783680535199E1
622 579 1.2739668147153907E1
622 582 3.2213858878396096E1
622 584 -1.038162675536691E1
622 587 9.345284260192015
622 594 1.7671364428649667E1
622 600 -7.290353083041923E1
622 603 2.550277952306746E1
622 607 1.0163423363837595E1
622 610 2.080462961849812E1
622 613 -2.0412466548765238E1
622 616 -6.981535672896424
622 622 4.7654350258508754E2
622 625 -1.5365978821115775E1
623 382 -6.421243225882255
623 503 4.555900309839336E1
623 506 -9.589331204092132E1
623 525 -2.9638827441489717E1
623 531 -5.6517977299047885E1
623 552 2.249264256751246
623 555 -1.916713671706242E1
623 558 -2.5228838305865736E1
623 571 7.346950560990972E-1
623 580 1.2739668147153907E1
623 583 3.2213858878396096E1
623 585 -1.038162675536691E1
623 595 1.7671364428649667E1
623 601 -7.290353083041923E1
623 604 2.550277952306746E1
623 606 -4.387390440424567E1
623 608 1.0163423363837595E1
623 611 2.080462961849812E1
623 614 -2.0412466548765238E1
623 617 -6.981535672896424
623 623 4.7654350258508754E2
623 626 -1.5365978821115775E1
623 892 4.246783680535199E1
623 956 9.345284260192015
624 383 -6.421243225882255
624 486 -4.387390440424567E1
624 504 4.555900309839336E1
624 507 -9.589331204092132E1
624 526 -2.9638827441489717E1
624 532 -5.6517977299047885E1
624 553 2.249264256751246
624 556 -1.916713671706242E1
624 559 -2.5228838305865736E1
624 572 7.346950560990972E-1
624 581 1.2739668147153907E1
624 586 -1.038162675536691E1
624 596 1.7671364428649667E1
624 602 -7.290353083041923E1
624 605 2.550277952306746E1
624 609 1.0163423363837595E1
624 612 2.080462961849812E1
624 615 -2.0412466548765238E1
624 618 -6.981535672896424
624 624 4.7654350258508754E2
624 627 -1.5365978821115775E1
624 640 4.246783680535199E1
624 646 3.2213858878396096E1
624 686 9.345284260192015
625 83 -4.5914005340586016E1
625 85 3.343432994529947E1
625 381 -4.4991293549405576E1
625 485 2.875525822211207E1
625 492 1.3003083052052606E1
625 578 4.2725708228272204E1
625 587 3.982164484595409E1
625 600 -1.472081257380367
625 603 -2.7221431667524882E1
625 607 1.5563134581586231E1
625 610 -5.283264812776595E1
625 613 2.1284119045320555E1
625 619 6.105763473171404E1
625 622 -1.5365978821111753E1
625 625 4.7256474121035063E2
625 745 -4.6806552689659696E1
625 759 -1.165087761817811E1
625 868 -1.70429894493248E1
625 873 1.9024173865695147E1
625 880 2.468567879742047E1
625 883 -6.676048249405254E1
626 86 3.343432994529947E1
626 111 -1.165087761817811E1
626 366 1.3003083052052606E1
626 382 -4.4991293549405576E1
626 427 -4.5914005340586016E1
626 601 -1.472081257380367
626 604 -2.7221431667524882E1
626 606 2.875525822211207E1
626 608 1.5563134581586231E1
626 611 -5.283264812776595E1
626 614 2.1284119045320555E1
626 620 6.105763473171404E1
626 623 -1.5365978821111753E1
626 626 4.7256474121035063E2
626 869 -1.70429894493248E1
626 874 1.9024173865695147E1
626 876 -4.6806552689659696E1
626 881 2.468567879742047E1
626 884 -6.676048249405254E1
626 892 4.2725708228272204E1
626 956 3.982164484595409E1
627 87 3.343432994529947E1
627 365 -4.5914005340586016E1
627 383 -4.4991293549405576E1
627 426 -1.70429894493248E1
627 486 2.875525822211207E1
627 493 1.3003083052052606E1
627 602 -1.472081257380367
627 605 -2.7221431667524882E1
627 609 1.5563134581586231E1
627 612 -5.283264812776595E1
627 615 2.1284119045320555E1
627 621 6.105763473171404E1
627 624 -1.5365978821111753E1
627 627 4.7256474121035063E2
627 640 4.2725708228272204E1
627 686 3.982164484595409E1
627 746 -4.6806552689659696E1
627 760 -1.165087761817811E1
627 875 1.9024173865695147E1
627 882 2.468567879742047E1
627 885 -6.676048249405254E1
628 628 1.8280964544070834E1
628 631 -7.5917965492331305
628 650 2.392478476059665E-1
628 657 1.884100534590715
628 660 4.4895833334035915
628 670 -5.384133564411187E-1
628 687 -7.470528143096828
628 693 -6.147728663343049
629 629 1.8280964544070834E1
629 632 -7.5917965492331305
629 651 2.392478476059665E-1
629 658 1.884100534590715
629 661 4.4895833334035915
629 671 -5.384133564411187E-1
629 688 -7.470528143096828
629 694 -6.147728663343049
630 630 1.8280964544070834E1
630 633 -7.5917965492331305
630 652 2.392478476059665E-1
630 659 1.884100534590715
630 662 4.4895833334035915
630 672 -5.384133564411187E-1
630 689 -7.470528143096828
630 695 -6.147728663343049
631 628 -7.591796549233585
631 631 1.0528555548556575E1
631 657 4.4523163968506196E-1
631 667 -8.389460271934972E-1
631 670 -3.906146961694503E-1
631 678 1.2936123140195144E-1
631 687 1.7037351523065922
631 693 2.0131166965359206
632 629 -7.591796549233585
632 632 1.0528555548556575E1
632 658 4.4523163968506196E-1
632 668 -8.389460271934972E-1
632 671 -3.906146961694503E-1
632 679 1.2936123140195144E-1
632 688 1.7037351523065922
632 694 2.0131166965359206
633 630 -7.591796549233585
633 633 1.0528555548556575E1
633 659 4.4523163968506196E-1
633 669 -8.389460271934972E-1
633 672 -3.906146961694503E-1
633 680 1.2936123140195144E-1
633 689 1.7037351523065922
633 695 2.0131166965359206
634 602 1.7826987983219112E1
634 634 4.770901553657086E1
634 637 2.7827741490709172
634 646 -3.549812086083534E1
634 831 5.930091533916652
634 840 -1.1108330012605563E1
634 875 -4.111565038265724
635 520 2.3404228812380836
635 554 5.156729670765685E-1
635 576 2.7827741490709172
635 582 -3.7911420910597258
635 600 -1.2371747336997004E1
635 635 5.032128409672153E1
635 643 -3.775429798717755E1
636 555 5.156729670765685E-1
636 577 2.7827741490709172
636 583 -3.7911420910597258
636 601 -1.2371747336997004E1
636 636 5.032128409672153E1
636 638 2.3404228812380836
636 644 -3.775429798717755E1
637 556 5.156729670765685E-1
637 602 -1.2371747336997004E1
637 634 2.7827741490709172
637 637 5.032128409672153E1
637 639 2.3404228812380836
637 645 -3.775429798717755E1
637 646 -3.7911420910597258
638 509 1.0366169153227816
638 555 -1.494887148026993E1
638 558 9.619693117792849E-1
638 636 2.340422881238112
638 638 7.319858605029142E1
638 641 -6.815284753293429E1
638 644 -6.092239710128553
639 510 1.0366169153227816
639 556 -1.494887148026993E1
639 559 9.619693117792849E-1
639 637 2.340422881238112
639 639 7.319858605029142E1
639 642 -6.815284753293429E1
639 645 -6.092239710128553
640 581 1.3003468920497696E1
640 602 -9.272992437429536E1
640 624 4.246783680535228E1
640 627 4.2725708228271195E1
640 640 7.686413011586551E2
640 646 -4.278138113972565E1
640 686 -4.5074484903961843E2
640 837 1.7885792201729146E1
640 840 -1.5333892202255257E1
640 849 9.909902006705089
640 875 -3.7245849311287714E1
640 885 1.4793458094149889E1
640 914 -1.161375565888525E1
640 916 1.0176386974853386E1
640 954 1.922648241230334
641 509 -2.386589875818089
641 525 -2.857624727659413
641 555 3.9107605701931933
641 558 -1.0866525988372587E1
641 561 2.788794702109609
641 638 -6.81528475329344E1
641 641 1.0782048226420044E2
641 644 1.0430149028385209E1
642 510 -2.386589875818089
642 526 -2.857624727659413
642 556 3.9107605701931933
642 559 -1.0866525988372587E1
642 562 2.788794702109609
642 639 -6.81528475329344E1
642 642 1.0782048226420044E2
642 645 1.0430149028385209E1
643 520 -6.092239710128297
643 524 5.4936746100435805
643 527 1.0430149028386587E1
643 554 -2.1740881500520885E1
643 579 -2.03245891409978E1
643 582 2.9620197541960067
643 600 -1.9988201864300947
643 635 -3.7754297987177665E1
643 643 9.916463989276622E1
644 525 5.4936746100435805
644 555 -2.1740881500520885E1
644 580 -2.03245891409978E1
644 583 2.9620197541960067
644 601 -1.9988201864300947
644 636 -3.7754297987177665E1
644 638 -6.092239710128297
644 641 1.0430149028386587E1
644 644 9.916463989276622E1
645 526 5.4936746100435805
645 556 -2.1740881500520885E1
645 581 -2.03245891409978E1
645 602 -1.9988201864300947
645 637 -3.7754297987177665E1
645 639 -6.092239710128297
645 642 1.0430149028386587E1
645 645 9.916463989276622E1
645 646 2.9620197541960067
646 581 -3.0754352260783925E1
646 602 -4.620497297129643E1
646 624 3.2213858878396984E1
646 634 -3.5498120860835115E1
646 637 -3.7911420910598963
646 640 -4.278138113972906E1
646 645 2.9620197541957793
646 646 1.4265594310025062E2
646 840 3.6169843788595415
646 875 2.1285147459413395E1
647 647 6.188402418709211E1
647 650 2.531880163001489
647 653 1.2925202088136416E1
647 654 -2.212923861264292E1
647 673 -2.5419018710569873E1
647 676 -3.28750782400658E1
647 903 2.5672418801763115
648 648 6.188402418709211E1
648 651 2.531880163001489
648 655 -2.212923861264292E1
648 674 -2.5419018710569873E1
648 904 2.5672418801763115
648 915 1.2925202088136416E1
648 928 -3.28750782400658E1
649 649 6.188402418709211E1
649 652 2.531880163001489
649 656 -2.212923861264292E1
649 675 -2.5419018710569873E1
649 677 -3.28750782400658E1
649 905 2.5672418801763115
649 916 1.2925202088136416E1
650 628 2.3924784760589546E-1
650 647 2.5318801630015173
650 650 5.156324620935004E1
650 654 1.1719971565911209E1
650 657 -3.205153698797517E1
650 670 -1.4664283853485756E1
650 673 -2.623159467227063E1
651 629 2.3924784760589546E-1
651 648 2.5318801630015173
651 651 5.156324620935004E1
651 655 1.1719971565911209E1
651 658 -3.205153698797517E1
651 671 -1.4664283853485756E1
651 674 -2.623159467227063E1
652 630 2.3924784760589546E-1
652 649 2.5318801630015173
652 652 5.156324620935004E1
652 656 1.1719971565911209E1
652 659 -3.205153698797517E1
652 672 -1.4664283853485756E1
652 675 -2.623159467227063E1
653 578 1.0176386974853102E1
653 579 4.8881375649847314E-1
653 647 1.2925202088136814E1
653 653 1.352334621977769E2
653 654 -6.160888072976405
653 663 -1.2880307932053583E1
653 664 -6.883484802388923E-1
653 676 -2.221156919689986E1
653 681 -3.587462390173279E1
653 903 -6.909912130430712
653 912 -1.1471185815711722E1
653 929 2.437374486858856E1
653 950 8.99994527114032E-2
654 524 2.209071754344336
654 579 1.3659614149364856
654 647 -2.2129238612642947E1
654 650 1.1719971565911209E1
654 653 -6.160888072976348
654 654 1.3041864957998945E2
654 657 -1.8036476959501755E1
654 664 -2.952837231687808
654 667 -2.1669453579721903E1
654 673 -1.3379582801353964E1
654 676 1.3612353999174463E1
654 681 -1.1564216866987778
654 682 8.052979440974354
654 690 -8.902291313761694
654 693 2.9469872078987304E1
655 525 2.209071754344336
655 580 1.3659614149364856
655 648 -2.2129238612642947E1
655 651 1.1719971565911209E1
655 655 1.3041864957998945E2
655 658 -1.8036476959501755E1
655 665 -2.952837231687808
655 668 -2.1669453579721903E1
655 674 -1.3379582801353964E1
655 683 8.052979440974354
655 691 -8.902291313761694
655 694 2.9469872078987304E1
655 915 -6.160888072976348
655 928 1.3612353999174463E1
655 953 -1.1564216866987778
656 526 2.209071754344336
656 581 1.3659614149364856
656 649 -2.2129238612642947E1
656 652 1.1719971565911209E1
656 656 1.3041864957998945E2
656 659 -1.8036476959501755E1
656 666 -2.952837231687808
656 669 -2.1669453579721903E1
656 675 -1.3379582801353964E1
656 677 1.3612353999174463E1
656 684 8.052979440974354
656 692 -8.902291313761694
656 695 2.9469872078987304E1
656 916 -6.160888072976348
656 954 -1.1564216866987778
657 628 1.8841005345906723
657 631 4.4523163968415247E-1
657 650 -3.2051536987975624E1
657 654 -1.8036476959501428E1
657 657 5.4434243532493525E1
657 660 -6.93827933208123
657 667 -1.0514805022594075E1
657 670 2.7449275691469666
657 673 1.7868390654499002E1
657 687 1.4206689992883142E1
657 690 -1.9613701281595284
657 693 -1.8075395287916905E1
658 629 1.8841005345906723
658 632 4.4523163968415247E-1
658 651 -3.2051536987975624E1
658 655 -1.8036476959501428E1
658 658 5.4434243532493525E1
658 661 -6.93827933208123
658 668 -1.0514805022594075E1
658 671 2.7449275691469666
658 674 1.7868390654499002E1
658 688 1.4206689992883142E1
658 691 -1.9613701281595284
658 694 -1.8075395287916905E1
659 630 1.8841005345906723
659 633 4.4523163968415247E-1
659 652 -3.2051536987975624E1
659 656 -1.8036476959501428E1
659 659 5.4434243532493525E1
659 662 -6.93827933208123
659 669 -1.0514805022594075E1
659 672 2.7449275691469666
659 675 1.7868390654499002E1
659 689 1.4206689992883142E1
659 692 -1.9613701281595284
659 695 -1.8075395287916905E1
660 511 6.03902846588887
660 628 4.489583333403897
660 657 -6.938279332081116
660 660 4.858114011871652E1
660 687 -5.4348745167521486E1
660 690 2.0993133098088563
661 512 6.03902846588887
661 629 4.489583333403897
661 658 -6.938279332081116
661 661 4.858114011871652E1
661 688 -5.4348745167521486E1
661 691 2.0993133098088563
662 513 6.03902846588887
662 630 4.489583333403897
662 659 -6.938279332081116
662 662 4.858114011871652E1
662 689 -5.4348745167521486E1
662 692 2.0993133098088563
663 653 -1.288030793205344E1
663 663 2.7322949391226675E1
663 664 -4.020668674448814
663 676 -1.3889157661503118E1
663 681 2.3850339661327395
663 923 2.4782507289747713
663 929 -2.328514416510106E1
663 950 1.646298811502021
664 653 -6.883484802388817E-1
664 654 -2.9528372316870057
664 663 -4.0206686744487286
664 664 2.518932221717067E1
664 667 2.1088951653121768E-1
664 673 -9.300449502804604
664 676 3.829607628300886
664 681 -1.1286898535271563
664 682 -1.5758207300975897
665 655 -2.9528372316870057
665 665 2.518932221717067E1
665 668 2.1088951653121768E-1
665 674 -9.300449502804604
665 683 -1.5758207300975897
665 915 -6.883484802388817E-1
665 926 -4.0206686744487286
665 928 3.829607628300886
665 953 -1.1286898535271563
666 656 -2.9528372316870057
666 666 2.518932221717067E1
666 669 2.1088951653121768E-1
666 675 -9.300449502804604
666 677 3.829607628300886
666 684 -1.5758207300975897
666 916 -6.883484802388817E-1
666 927 -4.0206686744487286
666 954 -1.1286898535271563
667 631 -8.389460271935931E-1
667 654 -2.1669453579721697E1
667 657 -1.0514805022593649E1
667 664 2.1088951653113241E-1
667 667 4.023743038316549E1
667 670 -7.089367334544505E-2
667 673 -1.178611095321517
667 682 -1.0703771816500401E1
667 693 -3.027800044286348
668 632 -8.389460271935931E-1
668 655 -2.1669453579721697E1
668 658 -1.0514805022593649E1
668 665 2.1088951653113241E-1
668 668 4.023743038316549E1
668 671 -7.089367334544505E-2
668 674 -1.178611095321517
668 683 -1.0703771816500401E1
668 694 -3.027800044286348
669 633 -8.389460271935931E-1
669 656 -2.1669453579721697E1
669 659 -1.0514805022593649E1
669 666 2.1088951653113241E-1
669 669 4.023743038316549E1
669 672 -7.089367334544505E-2
669 675 -1.178611095321517
669 684 -1.0703771816500401E1
669 695 -3.027800044286348
670 628 -5.384133564411187E-1
670 631 -3.906146961694503E-1
670 650 -1.466428385348587E1
670 657 2.744927569147194
670 667 -7.089367334507557E-2
670 670 1.2447361423346592E1
670 673 3.013370668599581
671 629 -5.384133564411187E-1
671 632 -3.906146961694503E-1
671 651 -1.466428385348587E1
671 658 2.744927569147194
671 668 -7.089367334507557E-2
671 671 1.2447361423346592E1
671 674 3.013370668599581
672 630 -5.384133564411187E-1
672 633 -3.906146961694503E-1
672 652 -1.466428385348587E1
672 659 2.744927569147194
672 669 -7.089367334507557E-2
672 672 1.2447361423346592E1
672 675 3.013370668599581
673 647 -2.54190187105699E1
673 650 -2.6231594672270433E1
673 654 -1.3379582801355724E1
673 657 1.7868390654500026E1
673 664 -9.300449502803808
673 667 -1.178611095319936
673 670 3.0133706685995776
673 673 5.105728131760196E1
673 676 6.148339141800427
674 648 -2.54190187105699E1
674 651 -2.6231594672270433E1
674 655 -1.3379582801355724E1
674 658 1.7868390654500026E1
674 665 -9.300449502803808
674 668 -1.178611095319936
674 671 3.0133706685995776
674 674 5.105728131760196E1
674 928 6.148339141800427
675 649 -2.54190187105699E1
675 652 -2.6231594672270433E1
675 656 -1.3379582801355724E1
675 659 1.7868390654500026E1
675 666 -9.300449502803808
675 669 -1.178611095319936
675 672 3.0133706685995776
675 675 5.105728131760196E1
675 677 6.148339141800427
676 647 -3.287507824006614E1
676 653 -2.2211569196900825E1
676 654 1.3612353999175426E1
676 663 -1.3889157661503642E1
676 664 3.8296076283004945
676 673 6.148339141800179
676 676 6.3405592620885926E1
676 681 -1.8740028751483777
676 903 -1.8959457831600957E1
676 929 5.957770799312371
677 649 -3.287507824006614E1
677 656 1.3612353999175426E1
677 666 3.8296076283004945
677 675 6.148339141800179
677 677 6.3405592620885926E1
677 905 -1.8959457831600957E1
677 916 -2.2211569196900825E1
677 927 -1.3889157661503642E1
677 931 5.957770799312371
677 954 -1.8740028751483777
678 514 3.966145833405335
678 528 1.6054888704293262
678 631 1.293612314022755E-1
678 678 1.2153636819910702E1
678 687 -1.3100754079626967E1
678 693 -4.9958609302757395E-1
679 515 3.966145833405335
679 529 1.6054888704293262
679 632 1.293612314022755E-1
679 679 1.2153636819910702E1
679 688 -1.3100754079626967E1
679 694 -4.9958609302757395E-1
680 516 3.966145833405335
680 633 1.293612314022755E-1
680 680 1.2153636819910702E1
680 685 1.6054888704293262
680 689 -1.3100754079626967E1
680 695 -4.9958609302757395E-1
681 578 1.922648241230121
681 579 2.9843287113811385
681 584 -2.598890001000513E-1
681 587 -7.9429857071284475
681 653 -3.587462390173208E1
681 654 -1.1564216866985504
681 663 2.3850339661329887
681 664 -1.1286898535273928
681 676 -1.874002875148463
681 681 5.456753451055023E1
681 682 9.584261942033308E-1
681 912 8.533983198109244
681 950 -6.340788225455309
682 524 -1.0042609889177436
682 528 2.2262624258183745
682 530 -1.412703472928375E-1
682 579 -1.2596929498671201E1
682 584 -1.0933629814280323E1
682 654 8.052979440973601
682 664 -1.5758207300967086
682 667 -1.0703771816500415E1
682 681 9.584261942029044E-1
682 682 8.29666288018251E1
682 690 1.1566178341284342E1
682 693 -5.341184576133187
683 525 -1.0042609889177436
683 529 2.2262624258183745
683 531 -1.412703472928375E-1
683 580 -1.2596929498671201E1
683 585 -1.0933629814280323E1
683 655 8.052979440973601
683 665 -1.5758207300967086
683 668 -1.0703771816500415E1
683 683 8.29666288018251E1
683 691 1.1566178341284342E1
683 694 -5.341184576133187
683 953 9.584261942029044E-1
684 526 -1.0042609889177436
684 532 -1.412703472928375E-1
684 581 -1.2596929498671201E1
684 586 -1.0933629814280323E1
684 656 8.052979440973601
684 666 -1.5758207300967086
684 669 -1.0703771816500415E1
684 684 8.29666288018251E1
684 685 2.2262624258183745
684 692 1.1566178341284342E1
684 695 -5.341184576133187
684 954 9.584261942029044E-1
685 513 5.792390471360129
685 516 -7.0520854601456335
685 526 1.2949204586411298
685 532 -2.8062837099498587E1
685 680 1.6054888704294399
685 684 2.2262624258183075
685 685 6.909995069665756E1
685 689 -4.805683015457306
685 692 -1.892989737899262E1
685 695 1.346068865827057E-1
686 581 1.6530283337752547E1
686 586 4.829409670914703
686 596 -6.795794652743005
686 609 6.799135845073098E1
686 624 9.34528426019268
686 627 3.982164484595456E1
686 640 -4.5074484903961775E2
686 686 8.498861530518401E2
686 849 1.0319976667677503E1
686 867 -3.221650316289372E1
686 882 -5.901869229512407
686 885 -6.391743490977874E1
686 914 2.1605666302256136E1
686 952 -5.155515215055851
686 954 -7.942985707128902
687 511 -9.525068792263006E-1
687 514 -6.164102546208317
687 528 -4.8056830154568795
687 628 -7.470528143095407
687 631 1.7037351523065354
687 657 1.4206689992882744E1
687 660 -5.434874516752154E1
687 678 -1.3100754079626967E1
687 687 9.462280671705366E1
687 690 -3.032691965501997
687 693 -3.176985719390615
688 512 -9.525068792263006E-1
688 515 -6.164102546208317
688 529 -4.8056830154568795
688 629 -7.470528143095407
688 632 1.7037351523065354
688 658 1.4206689992882744E1
688 661 -5.434874516752154E1
688 679 -1.3100754079626967E1
688 688 9.462280671705366E1
688 691 -3.032691965501997
688 694 -3.176985719390615
689 513 -9.525068792263006E-1
689 516 -6.164102546208317
689 630 -7.470528143095407
689 633 1.7037351523065354
689 659 1.4206689992882744E1
689 662 -5.434874516752154E1
689 680 -1.3100754079626967E1
689 685 -4.8056830154568795
689 689 9.462280671705366E1
689 692 -3.032691965501997
689 695 -3.176985719390615
690 511 1.1314141660419954
690 514 2.642474144163927
690 524 -1.979467478451876E1
690 528 -1.892989737899262E1
690 654 -8.902291313761438
690 657 -1.9613701281608755
690 660 2.099313309809002
690 682 1.1566178341284981E1
690 687 -3.0326919655019684
690 690 7.913071209212863E1
690 693 -2.006315050544179E1
691 512 1.1314141660419954
691 515 2.642474144163927
691 525 -1.979467478451876E1
691 529 -1.892989737899262E1
691 655 -8.902291313761438
691 658 -1.9613701281608755
691 661 2.099313309809002
691 683 1.1566178341284981E1
691 688 -3.0326919655019684
691 691 7.913071209212863E1
691 694 -2.006315050544179E1
692 513 1.1314141660419954
692 516 2.642474144163927
692 526 -1.979467478451876E1
692 656 -8.902291313761438
692 659 -1.9613701281608755
692 662 2.099313309809002
692 684 1.1566178341284981E1
692 685 -1.892989737899262E1
692 689 -3.0326919655019684
692 692 7.913071209212863E1
692 695 -2.006315050544179E1
693 528 1.3460688658267728E-1
693 628 -6.147728663342253
693 631 2.0131166965355796
693 654 2.946987207898833E1
693 657 -1.8075395287916564E1
693 667 -3.0278000442872006
693 678 -4.9958609302768764E-1
693 682 -5.3411845761337835
693 687 -3.176985719390558
693 690 -2.006315050544134E1
693 693 9.003297197299887E1
694 529 1.3460688658267728E-1
694 629 -6.147728663342253
694 632 2.0131166965355796
694 655 2.946987207898833E1
694 658 -1.8075395287916564E1
694 668 -3.0278000442872006
694 679 -4.9958609302768764E-1
694 683 -5.3411845761337835
694 688 -3.176985719390558
694 691 -2.006315050544134E1
694 694 9.003297197299887E1
695 630 -6.147728663342253
695 633 2.0131166965355796
695 656 2.946987207898833E1
695 659 -1.8075395287916564E1
695 669 -3.0278000442872006
695 680 -4.9958609302768764E-1
695 684 -5.3411845761337835
695 685 1.3460688658267728E-1
695 689 -3.176985719390558
695 692 -2.006315050544134E1
695 695 9.003297197299887E1
696 6 2.8087618549785844
696 28 -8.235596817789002
696 696 3.053751269806388E1
696 699 1.5585520763271035
696 714 -1.090742983658376E1
696 735 8.377430916862897
696 738 1.0033791827482105E1
697 7 2.8087618549785844
697 29 -8.235596817789002
697 697 3.053751269806388E1
697 700 1.5585520763271035
697 715 -1.090742983658376E1
697 736 8.377430916862897
697 739 1.0033791827482105E1
698 8 2.8087618549785844
698 30 -8.235596817789002
698 698 3.053751269806388E1
698 701 1.5585520763271035
698 716 -1.090742983658376E1
698 737 8.377430916862897
698 740 1.0033791827482105E1
699 696 1.5585520763264498
699 699 3.3588611457678155E1
699 707 -5.93138796597259E-3
699 714 1.2849332574431216
699 717 -1.0638119628542455E1
699 738 4.227632554036745
699 761 9.720693884560205E-3
699 817 -2.569882308019544
700 697 1.5585520763264498
700 700 3.3588611457678155E1
700 715 1.2849332574431216
700 739 4.227632554036745
700 762 9.720693884560205E-3
700 773 -5.93138796597259E-3
700 794 -1.0638119628542455E1
700 818 -2.569882308019544
701 698 1.5585520763264498
701 701 3.3588611457678155E1
701 708 -5.93138796597259E-3
701 716 1.2849332574431216
701 718 -1.0638119628542455E1
701 740 4.227632554036745
701 763 9.720693884560205E-3
701 819 -2.569882308019544
702 50 6.823364921191853
702 74 -1.1028601998539557E1
702 109 1.4959418624478747E1
702 702 2.65465198853389E2
702 704 1.0750411859227569E1
702 735 8.302546219170049
702 753 4.5405567428634356E1
702 756 -4.079685398443579E1
702 759 7.993055415664685E-2
702 868 -4.198629598107891
702 870 -8.538064846164175
703 52 6.823364921191853
703 76 -1.1028601998539557E1
703 110 1.4959418624478747E1
703 426 -4.198629598107891
703 703 2.65465198853389E2
703 706 1.0750411859227569E1
703 737 8.302546219170049
703 755 4.5405567428634356E1
703 758 -4.079685398443579E1
703 760 7.993055415664685E-2
703 872 -8.538064846164175
704 702 1.075041185922781E1
704 704 1.3131969551599053E2
704 707 -1.5801077716326883
704 735 4.367318131064472
704 738 -1.2993295108179877E1
704 741 1.6842369883844484
704 753 3.063898352141564
704 756 -4.803995772087635
704 870 6.0010384310565215
705 53 1.075041185922781E1
705 705 1.3131969551599053E2
705 736 4.367318131064472
705 739 -1.2993295108179877E1
705 742 1.6842369883844484
705 754 3.063898352141564
705 757 -4.803995772087635
705 773 -1.5801077716326883
705 871 6.0010384310565215
706 703 1.075041185922781E1
706 706 1.3131969551599053E2
706 708 -1.5801077716326883
706 737 4.367318131064472
706 740 -1.2993295108179877E1
706 743 1.6842369883844484
706 755 3.063898352141564
706 758 -4.803995772087635
706 872 6.0010384310565215
707 699 -5.931387966541024E-3
707 704 -1.5801077716326741
707 707 7.551362778833823E1
707 717 4.679030236172153
707 738 6.104733635395281E-1
707 741 -2.9805388345203623
707 753 1.8062832828535896E1
707 761 6.977580507054995
707 774 5.31248513490258E-1
707 780 1.3939449144609092E1
707 808 -2.488323476544309
707 817 1.2143197436307673E-1
708 701 -5.931387966541024E-3
708 706 -1.5801077716326741
708 708 7.551362778833823E1
708 718 4.679030236172153
708 740 6.104733635395281E-1
708 743 -2.9805388345203623
708 755 1.8062832828535896E1
708 763 6.977580507054995
708 776 5.31248513490258E-1
708 782 1.3939449144609092E1
708 810 -2.488323476544309
708 819 1.2143197436307673E-1
709 17 -3.223785502188381
709 38 1.1636492732069215
709 709 1.095475643741675E2
709 712 -1.854118752859748E1
709 714 -5.73735910194315E1
709 717 6.2882879358864034
709 726 -4.030517171826388E1
709 756 3.6160879019057707E-1
710 18 -3.223785502188381
710 39 1.1636492732069215
710 710 1.095475643741675E2
710 715 -5.73735910194315E1
710 727 -4.030517171826388E1
710 757 3.6160879019057707E-1
710 793 -1.854118752859748E1
710 794 6.2882879358864034
711 19 -3.223785502188381
711 711 1.095475643741675E2
711 713 -1.854118752859748E1
711 716 -5.73735910194315E1
711 718 6.2882879358864034
711 728 -4.030517171826388E1
711 744 1.1636492732069215
711 758 3.6160879019057707E-1
712 709 -1.8541187528596872E1
712 712 5.932478972042094E2
712 717 -2.8297826952443955E2
712 724 -2.0773638121692056E2
712 726 6.3203467431406715
712 753 -3.821010728001539E1
712 756 4.215783638167918E1
712 764 4.298732461954926
712 767 3.2235456909359597
712 777 -4.3070362327039575E1
712 780 1.9478057905537673
712 790 2.6188294907377553E1
712 805 1.6823316436295386E1
713 711 -1.8541187528596872E1
713 713 5.932478972042094E2
713 718 -2.8297826952443955E2
713 725 -2.0773638121692056E2
713 728 6.3203467431406715
713 755 -3.821010728001539E1
713 758 4.215783638167918E1
713 766 4.298732461954926
713 769 3.2235456909359597
713 779 -4.3070362327039575E1
713 782 1.9478057905537673
713 792 2.6188294907377553E1
713 807 1.6823316436295386E1
714 17 -5.686477259494664
714 28 -1.595342467555372E1
714 696 -1.090742983658427E1
714 699 1.2849332574424785
714 709 -5.73735910194315E1
714 714 2.600673576390958E2
714 717 -4.0386508787735615E1
714 735 -2.111489640779503
714 738 -9.145051576436344
714 756 1.9700579054627325
715 18 -5.686477259494664
715 29 -1.595342467555372E1
715 697 -1.090742983658427E1
715 700 1.2849332574424785
715 710 -5.73735910194315E1
715 715 2.600673576390958E2
715 736 -2.111489640779503
715 739 -9.145051576436344
715 757 1.9700579054627325
715 794 -4.0386508787735615E1
716 19 -5.686477259494664
716 30 -1.595342467555372E1
716 698 -1.090742983658427E1
716 701 1.2849332574424785
716 711 -5.73735910194315E1
716 716 2.600673576390958E2
716 718 -4.0386508787735615E1
716 737 -2.111489640779503
716 740 -9.145051576436344
716 758 1.9700579054627325
717 699 -1.0638119628541858E1
717 707 4.679030236173084
717 709 6.288287935886102
717 712 -2.8297826952444E2
717 714 -4.038650878773661E1
717 717 2.9163253772453663E2
717 738 -1.7424564011593517
717 753 1.5372623074976758E1
717 756 -2.946170943620569E1
717 764 -5.146014767652385
717 780 -3.552919278522463E1
717 817 -2.951792248198656E1
718 701 -1.0638119628541858E1
718 708 4.679030236173084
718 711 6.288287935886102
718 713 -2.8297826952444E2
718 716 -4.038650878773661E1
718 718 2.9163253772453663E2
718 740 -1.7424564011593517
718 755 1.5372623074976758E1
718 758 -2.946170943620569E1
718 766 -5.146014767652385
718 782 -3.552919278522463E1
718 819 -2.951792248198656E1
719 57 -5.538725044825514E-1
719 60 -3.509081094300946E1
719 719 4.756975024225024E1
719 722 -1.3578253692659294
719 726 -2.518006750881956E1
719 747 -1.4437417070835394E1
719 750 -4.095216052625076E1
719 756 1.5056917483640587E1
720 31 -3.509081094300946E1
720 58 -5.538725044825514E-1
720 720 4.756975024225024E1
720 727 -2.518006750881956E1
720 748 -1.4437417070835394E1
720 751 -4.095216052625076E1
720 757 1.5056917483640587E1
720 797 -1.3578253692659294
721 59 -5.538725044825514E-1
721 721 4.756975024225024E1
721 723 -1.3578253692659294
721 728 -2.518006750881956E1
721 729 -3.509081094300946E1
721 749 -1.4437417070835394E1
721 752 -4.095216052625076E1
721 758 1.5056917483640587E1
722 719 -1.357825369266235
722 722 5.027229873784311E1
722 724 -1.9847522970651173E1
722 726 2.0499304795888605E1
722 750 -7.5574863958635365
722 770 2.557474624032759
722 802 7.902137718072632
722 814 1.2676294549963435E1
723 721 -1.357825369266235
723 723 5.027229873784311E1
723 725 -1.9847522970651173E1
723 728 2.0499304795888605E1
723 752 -7.5574863958635365
723 772 2.557474624032759
723 804 7.902137718072632
723 816 1.2676294549963435E1
724 712 -2.0773638121691948E2
724 722 -1.984752297065079E1
724 724 3.758984411670714E2
724 726 -1.4719271805391895E1
724 750 2.7683427452614215E1
724 753 1.4685086274052308E1
724 756 9.586432426799838
724 767 4.188466786804996E-1
724 802 -4.2308431814689605E1
724 805 -2.926961219134562E1
724 814 -2.075554348501711E1
725 713 -2.0773638121691948E2
725 723 -1.984752297065079E1
725 725 3.758984411670714E2
725 728 -1.4719271805391895E1
725 752 2.7683427452614215E1
725 755 1.4685086274052308E1
725 758 9.586432426799838
725 769 4.188466786804996E-1
725 804 -4.2308431814689605E1
725 807 -2.926961219134562E1
725 816 -2.075554348501711E1
726 38 -1.0005022734264202E1
726 60 1.895283760034915E1
726 709 -4.0305171718264276E1
726 712 6.3203467431407265
726 719 -2.518006750882195E1
726 722 2.0499304795888268E1
726 724 -1.4719271805392067E1
726 726 1.7043123703214292E2
726 750 -4.487163436266513
726 756 -1.4903735121650383E1
727 31 1.895283760034915E1
727 39 -1.0005022734264202E1
727 710 -4.0305171718264276E1
727 720 -2.518006750882195E1
727 727 1.7043123703214292E2
727 751 -4.487163436266513
727 757 -1.4903735121650383E1
727 793 6.3203467431407265
727 797 2.0499304795888268E1
727 798 -1.4719271805392067E1
728 711 -4.0305171718264276E1
728 713 6.3203467431407265
728 721 -2.518006750882195E1
728 723 2.0499304795888268E1
728 725 -1.4719271805392067E1
728 728 1.7043123703214292E2
728 729 1.895283760034915E1
728 744 -1.0005022734264202E1
728 752 -4.487163436266513
728 758 -1.4903735121650383E1
729 19 6.077460452409831E-1
729 47 -1.2243191686094193E1
729 59 -9.160803389846208
729 63 -7.662754981690702
729 96 3.621746658553752E1
729 110 -1.2687136109757706E1
729 721 -3.509081094301029E1
729 728 1.895283760035111E1
729 729 3.583354845026272E2
729 744 -4.649796276984816E1
729 749 1.8041600009005364E1
729 758 4.260722368057413
730 70 2.6692968500857376E1
730 91 -8.775629539842777E1
730 109 -3.6406752490893496E1
730 730 6.155005744590567E2
730 732 -1.690405546084904E1
730 745 -6.314729162156606
730 747 -3.492097081973182E1
730 753 7.534798721553145E1
730 756 8.282688223002042E1
730 759 -6.531994231016327E1
730 877 -7.32802516210947E1
731 72 2.6692968500857376E1
731 93 -8.775629539842777E1
731 110 -3.6406752490893496E1
731 731 6.155005744590567E2
731 734 -1.690405546084904E1
731 746 -6.314729162156606
731 749 -3.492097081973182E1
731 755 7.534798721553145E1
731 758 8.282688223002042E1
731 760 -6.531994231016327E1
731 879 -7.32802516210947E1
732 730 -1.690405546084875E1
732 732 1.67280503400795E2
732 747 -3.364255372342052E1
732 750 -7.540567206356233
732 753 -2.3368905127502487E1
732 756 2.2951646850443336E1
732 802 1.4697869419807457E1
732 820 -1.7376722264294173E1
732 877 -1.4251179296093024E1
733 73 -1.690405546084875E1
733 733 1.67280503400795E2
733 748 -3.364255372342052E1
733 751 -7.540567206356233
733 754 -2.3368905127502487E1
733 757 2.2951646850443336E1
733 803 1.4697869419807457E1
733 821 -1.7376722264294173E1
733 878 -1.4251179296093024E1
734 731 -1.690405546084875E1
734 734 1.67280503400795E2
734 749 -3.364255372342052E1
734 752 -7.540567206356233
734 755 -2.3368905127502487E1
734 758 2.2951646850443336E1
734 804 1.4697869419807457E1
734 822 -1.7376722264294173E1
734 879 -1.4251179296093024E1
735 6 9.271768779674062
735 28 -2.1059229990669515E1
735 35 -1.8997097176952806
735 74 1.7853681283096403
735 109 3.227512715434007E1
735 696 8.37743091686299
735 702 8.302546219172138
735 704 4.367318131065268
735 714 -2.111489640779517
735 735 1.2936040105800015E2
735 738 -1.10942213312582
735 756 1.2206903195443502E1
736 7 9.271768779674062
736 29 -2.1059229990669515E1
736 36 -1.8997097176952806
736 48 3.227512715434007E1
736 53 8.302546219172138
736 75 1.7853681283096403
736 697 8.37743091686299
736 705 4.367318131065268
736 715 -2.111489640779517
736 736 1.2936040105800015E2
736 739 -1.10942213312582
736 757 1.2206903195443502E1
737 8 9.271768779674062
737 30 -2.1059229990669515E1
737 37 -1.8997097176952806
737 76 1.7853681283096403
737 110 3.227512715434007E1
737 698 8.37743091686299
737 703 8.302546219172138
737 706 4.367318131065268
737 716 -2.111489640779517
737 737 1.2936040105800015E2
737 740 -1.10942213312582
737 758 1.2206903195443502E1
738 696 1.0033791827482673E1
738 699 4.227632554037541
738 704 -1.2993295108179252E1
738 707 6.104733635385617E-1
738 714 -9.145051576438476
738 717 -1.7424564011600054
738 735 -1.1094221331275822
738 738 9.533875588574756E1
738 753 2.47408222770237E1
738 756 -5.62873541683428
739 697 1.0033791827482673E1
739 700 4.227632554037541
739 705 -1.2993295108179252E1
739 715 -9.145051576438476
739 736 -1.1094221331275822
739 739 9.533875588574756E1
739 754 2.47408222770237E1
739 757 -5.62873541683428
739 773 6.104733635385617E-1
739 794 -1.7424564011600054
740 698 1.0033791827482673E1
740 701 4.227632554037541
740 706 -1.2993295108179252E1
740 708 6.104733635385617E-1
740 716 -9.145051576438476
740 718 -1.7424564011600054
740 737 -1.1094221331275822
740 740 9.533875588574756E1
740 755 2.47408222770237E1
740 758 -5.62873541683428
741 704 1.684236988384562
741 707 -2.9805388345194173
741 741 5.362869157460104E1
741 753 -1.7514861340575855E1
741 774 -8.243036225718186E-1
741 780 5.491046865543675
741 826 1.0093662636263275E1
741 844 -1.824210350538007E1
741 870 -4.147196543423586
742 705 1.684236988384562
742 742 5.362869157460104E1
742 754 -1.7514861340575855E1
742 773 -2.9805388345194173
742 775 -8.243036225718186E-1
742 781 5.491046865543675
742 827 1.0093662636263275E1
742 845 -1.824210350538007E1
742 871 -4.147196543423586
743 706 1.684236988384562
743 708 -2.9805388345194173
743 743 5.362869157460104E1
743 755 -1.7514861340575855E1
743 776 -8.243036225718186E-1
743 782 5.491046865543675
743 828 1.0093662636263275E1
743 846 -1.824210350538007E1
743 872 -4.147196543423586
744 19 -2.814945813559968E1
744 110 2.2615803798154545E1
744 711 1.1636492732057846
744 728 -1.0005022734263989E1
744 729 -4.649796276984928E1
744 744 1.0925629174813584E2
744 758 -2.3238560586829998E1
745 70 -3.1811611106978623
745 85 1.195251086442735E1
745 610 -1.161291736782601E1
745 625 -4.680655268966004E1
745 730 -6.314729162157359
745 745 2.1450743921304863E2
745 759 -1.8014396925655458E1
745 877 -9.164946884458798
745 880 -2.337690830897807E1
745 883 6.548046231771059E1
746 72 -3.1811611106978623
746 87 1.195251086442735E1
746 612 -1.161291736782601E1
746 627 -4.680655268966004E1
746 731 -6.314729162157359
746 746 2.1450743921304863E2
746 760 -1.8014396925655458E1
746 879 -9.164946884458798
746 882 -2.337690830897807E1
746 885 6.548046231771059E1
747 57 9.594107466699043
747 60 1.8041600009007013E1
747 91 7.465539860672113
747 94 -1.8714836562025646E1
747 109 -2.5635577289730627E1
747 719 -1.4437417070835831E1
747 730 -3.4920970819732034E1
747 732 -3.3642553723420455E1
747 747 1.662630749453035E2
747 750 7.3938366723289946
747 756 3.7683769094850454
748 31 1.8041600009007013E1
748 48 -2.5635577289730627E1
748 58 9.594107466699043
748 73 -3.4920970819732034E1
748 92 7.465539860672113
748 95 -1.8714836562025646E1
748 720 -1.4437417070835831E1
748 733 -3.3642553723420455E1
748 748 1.662630749453035E2
748 751 7.3938366723289946
748 757 3.7683769094850454
749 59 9.594107466699043
749 93 7.465539860672113
749 96 -1.8714836562025646E1
749 110 -2.5635577289730627E1
749 721 -1.4437417070835831E1
749 729 1.8041600009007013E1
749 731 -3.4920970819732034E1
749 734 -3.3642553723420455E1
749 749 1.662630749453035E2
749 752 7.3938366723289946
749 758 3.7683769094850454
750 719 -4.0952160526249706E1
750 722 -7.557486395863091
750 724 2.768342745261362E1
750 726 -4.48716343626619
750 732 -7.54056720635554
750 747 7.393836672328817
750 750 2.3180453697624264E2
750 753 7.451054740832263
750 756 -1.4700613238223859E1
750 802 -5.503274909573651E1
751 720 -4.0952160526249706E1
751 727 -4.48716343626619
751 733 -7.54056720635554
751 748 7.393836672328817
751 751 2.3180453697624264E2
751 754 7.451054740832263
751 757 -1.4700613238223859E1
751 797 -7.557486395863091
751 798 2.768342745261362E1
751 803 -5.503274909573651E1
752 721 -4.0952160526249706E1
752 723 -7.557486395863091
752 725 2.768342745261362E1
752 728 -4.48716343626619
752 734 -7.54056720635554
752 749 7.393836672328817
752 752 2.3180453697624264E2
752 755 7.451054740832263
752 758 -1.4700613238223859E1
752 804 -5.503274909573651E1
753 702 4.540556742863459E1
753 704 3.063898352140825
753 707 1.806283282853449E1
753 712 -3.821010728001592E1
753 717 1.5372623074975486E1
753 724 1.4685086274052715E1
753 730 7.534798721552947E1
753 732 -2.3368905127500508E1
753 738 2.474082227702177E1
753 741 -1.75148613405754E1
753 750 7.451054740831587
753 753 3.316254658040802E2
753 756 -3.623979978383977E1
753 759 -3.939275542638572E1
753 777 -1.072307058198299E1
753 780 4.2894685763151145E1
753 790 -3.074887786832518E1
753 802 1.3434926742070632E1
753 805 2.1308241701445866E1
753 820 5.438555273077732
753 832 1.9604059443323795E1
753 844 9.83473880178223
753 850 -3.827221018305355E1
753 859 1.5990465834295229
753 870 -1.6333719580906436E1
753 877 -1.6657308303084545E1
753 883 5.794821387564956E-1
754 53 4.540556742863459E1
754 73 7.534798721552947E1
754 111 -3.939275542638572E1
754 705 3.063898352140825
754 733 -2.3368905127500508E1
754 739 2.474082227702177E1
754 742 -1.75148613405754E1
754 751 7.451054740831587
754 754 3.316254658040802E2
754 757 -3.623979978383977E1
754 773 1.806283282853449E1
754 778 -1.072307058198299E1
754 781 4.2894685763151145E1
754 791 -3.074887786832518E1
754 793 -3.821010728001592E1
754 794 1.5372623074975486E1
754 798 1.4685086274052715E1
754 803 1.3434926742070632E1
754 806 2.1308241701445866E1
754 821 5.438555273077732
754 833 1.9604059443323795E1
754 845 9.83473880178223
754 851 -3.827221018305355E1
754 860 1.5990465834295229
754 871 -1.6333719580906436E1
754 878 -1.6657308303084545E1
754 884 5.794821387564956E-1
755 703 4.540556742863459E1
755 706 3.063898352140825
755 708 1.806283282853449E1
755 713 -3.821010728001592E1
755 718 1.5372623074975486E1
755 725 1.4685086274052715E1
755 731 7.534798721552947E1
755 734 -2.3368905127500508E1
755 740 2.474082227702177E1
755 743 -1.75148613405754E1
755 752 7.451054740831587
755 755 3.316254658040802E2
755 758 -3.623979978383977E1
755 760 -3.939275542638572E1
755 779 -1.072307058198299E1
755 782 4.2894685763151145E1
755 792 -3.074887786832518E1
755 804 1.3434926742070632E1
755 807 2.1308241701445866E1
755 822 5.438555273077732
755 834 1.9604059443323795E1
755 846 9.83473880178223
755 852 -3.827221018305355E1
755 861 1.5990465834295229
755 872 -1.6333719580906436E1
755 879 -1.6657308303084545E1
755 885 5.794821387564956E-1
756 17 2.838092483283404
756 28 -1.877097801875884E1
756 38 -2.323856058683001E1
756 60 4.260722368057149
756 109 -1.0328590078981831E2
756 702 -4.079685398443554E1
756 704 -4.80399577208707
756 709 3.6160879019053105E-1
756 712 4.2157836381680006E1
756 714 1.970057905461275
756 717 -2.946170943620521E1
756 719 1.5056917483638571E1
756 724 9.586432426799727
756 726 -1.490373512165019E1
756 730 8.28268822300218E1
756 732 2.295164685044482E1
756 735 1.2206903195442635E1
756 738 -5.628735416831461
756 747 3.76837690948469
756 750 -1.4700613238224056E1
756 753 -3.6239799783844035E1
756 756 4.718758326255911E2
756 759 4.149627721678999E1
757 18 2.838092483283404
757 29 -1.877097801875884E1
757 31 4.260722368057149
757 39 -2.323856058683001E1
757 48 -1.0328590078981831E2
757 53 -4.079685398443554E1
757 73 8.28268822300218E1
757 111 4.149627721678999E1
757 705 -4.80399577208707
757 710 3.6160879019053105E-1
757 715 1.970057905461275
757 720 1.5056917483638571E1
757 727 -1.490373512165019E1
757 733 2.295164685044482E1
757 736 1.2206903195442635E1
757 739 -5.628735416831461
757 748 3.76837690948469
757 751 -1.4700613238224056E1
757 754 -3.6239799783844035E1
757 757 4.718758326255911E2
757 793 4.2157836381680006E1
757 794 -2.946170943620521E1
757 798 9.586432426799727
758 19 2.838092483283404
758 30 -1.877097801875884E1
758 110 -1.0328590078981831E2
758 703 -4.079685398443554E1
758 706 -4.80399577208707
758 711 3.6160879019053105E-1
758 713 4.2157836381680006E1
758 716 1.970057905461275
758 718 -2.946170943620521E1
758 721 1.5056917483638571E1
758 725 9.586432426799727
758 728 -1.490373512165019E1
758 729 4.260722368057149
758 731 8.28268822300218E1
758 734 2.295164685044482E1
758 737 1.2206903195442635E1
758 740 -5.628735416831461
758 744 -2.323856058683001E1
758 749 3.76837690948469
758 752 -1.4700613238224056E1
758 755 -3.6239799783844035E1
758 758 4.718758326255911E2
758 760 4.149627721678999E1
759 50 -1.737062628014843E1
759 70 -1.8467709104250403E1
759 74 -3.4947182888454066E1
759 83 -1.9571297405448377E1
759 85 6.026225582604552E1
759 91 5.189479767255429
759 103 -9.189241073243414E1
759 109 -1.1883429852481854E1
759 381 1.8435242748942862E1
759 625 -1.1650877618178736E1
759 702 7.993055415721528E-2
759 730 -6.531994231016374E1
759 745 -1.801439692565548E1
759 753 -3.939275542638682E1
759 756 4.149627721679147E1
759 759 5.476939129021537E2
759 868 -1.7959418906012417E1
759 870 9.865991227146687E-1
759 877 1.8234460929249753E1
759 883 -4.172473976615517E1
760 52 -1.737062628014843E1
760 72 -1.8467709104250403E1
760 76 -3.4947182888454066E1
760 87 6.026225582604552E1
760 93 5.189479767255429
760 105 -9.189241073243414E1
760 110 -1.1883429852481854E1
760 365 -1.9571297405448377E1
760 383 1.8435242748942862E1
760 426 -1.7959418906012417E1
760 627 -1.1650877618178736E1
760 703 7.993055415721528E-2
760 731 -6.531994231016374E1
760 746 -1.801439692565548E1
760 755 -3.939275542638682E1
760 758 4.149627721679147E1
760 760 5.476939129021537E2
760 872 9.865991227146687E-1
760 879 1.8234460929249753E1
760 885 -4.172473976615517E1
761 699 9.720693884787579E-3
761 707 6.97758050705437
761 761 1.5709346974899404E1
761 764 -8.45967427964922E-3
761 774 9.720693858795926E-3
761 808 -3.6167629122938547
761 817 1.2722099036087684
762 700 9.720693884787579E-3
762 762 1.5709346974899404E1
762 765 -8.45967427964922E-3
762 773 6.97758050705437
762 775 9.720693858795926E-3
762 809 -3.6167629122938547
762 818 1.2722099036087684
763 701 9.720693884787579E-3
763 708 6.97758050705437
763 763 1.5709346974899404E1
763 766 -8.45967427964922E-3
763 776 9.720693858795926E-3
763 810 -3.6167629122938547
763 819 1.2722099036087684
764 712 4.298732461957156
764 717 -5.1460147676522086
764 761 -8.459674279819751E-3
764 764 4.654136906541264E1
764 767 -1.781555091664474E1
764 777 -3.58226035511305
764 780 8.797863640004422
764 783 7.11109374997635
764 785 -3.3639515712985713
764 795 -1.6793699923430758E1
764 808 3.7314286893736853E-1
764 811 1.0025768654059746E1
764 817 -1.0334006520433832
765 762 -8.459674279819751E-3
765 765 4.654136906541264E1
765 768 -1.781555091664474E1
765 778 -3.58226035511305
765 781 8.797863640004422
765 786 -3.3639515712985713
765 793 4.298732461957156
765 794 -5.1460147676522086
765 809 3.7314286893736853E-1
765 812 1.0025768654059746E1
765 818 -1.0334006520433832
765 893 7.11109374997635
765 957 -1.6793699923430758E1
766 713 4.298732461957156
766 718 -5.1460147676522086
766 763 -8.459674279819751E-3
766 766 4.654136906541264E1
766 769 -1.781555091664474E1
766 779 -3.58226035511305
766 782 8.797863640004422
766 784 7.11109374997635
766 787 -3.3639515712985713
766 796 -1.6793699923430758E1
766 810 3.7314286893736853E-1
766 813 1.0025768654059746E1
766 819 -1.0334006520433832
767 712 3.2235456909368514
767 724 4.1884667868208975E-1
767 764 -1.7815550916645904E1
767 767 4.884431542028856E1
767 770 3.1080326054956227
767 777 -2.6418822888705744
767 785 -2.424856915175031E-1
767 788 2.559970274306757
767 790 8.591808596845965
767 795 2.2897528814720287
767 805 -1.4276168769368724
767 811 -2.6327339777471677
767 814 -5.892835067638998
767 823 -1.988867352097497
768 765 -1.7815550916645904E1
768 768 4.884431542028856E1
768 771 3.1080326054956227
768 778 -2.6418822888705744
768 786 -2.424856915175031E-1
768 791 8.591808596845965
768 793 3.2235456909368514
768 798 4.1884667868208975E-1
768 806 -1.4276168769368724
768 812 -2.6327339777471677
768 815 -5.892835067638998
768 824 -1.988867352097497
768 955 2.559970274306757
768 957 2.2897528814720287
769 713 3.2235456909368514
769 725 4.1884667868208975E-1
769 766 -1.7815550916645904E1
769 769 4.884431542028856E1
769 772 3.1080326054956227
769 779 -2.6418822888705744
769 787 -2.424856915175031E-1
769 789 2.559970274306757
769 792 8.591808596845965
769 796 2.2897528814720287
769 807 -1.4276168769368724
769 813 -2.6327339777471677
769 816 -5.892835067638998
769 825 -1.988867352097497
770 722 2.5574746240324995
770 767 3.1080326054953624
770 770 2.947751392368872E1
770 799 8.898838934411566
770 802 -4.8758438264465387E-1
770 814 4.283572209970089
770 823 -1.3105996886879932E1
771 768 3.1080326054953624
771 771 2.947751392368872E1
771 797 2.5574746240324995
771 800 8.898838934411566
771 803 -4.8758438264465387E-1
771 815 4.283572209970089
771 824 -1.3105996886879932E1
772 723 2.5574746240324995
772 769 3.1080326054953624
772 772 2.947751392368872E1
772 801 8.898838934411566
772 804 -4.8758438264465387E-1
772 816 4.283572209970089
772 825 -1.3105996886879932E1
773 700 -5.931387966541024E-3
773 705 -1.5801077716326741
773 739 6.104733635395281E-1
773 742 -2.9805388345203623
773 754 1.8062832828535896E1
773 762 6.977580507054995
773 773 7.551362778833823E1
773 775 5.31248513490258E-1
773 781 1.3939449144609092E1
773 794 4.679030236172153
773 809 -2.488323476544309
773 818 1.2143197436307673E-1
774 707 5.312485134895759E-1
774 741 -8.243036225707954E-1
774 761 9.72069385888119E-3
774 774 2.594459322343201E1
774 780 -1.0326833647764033E1
774 808 -4.059033590648369
774 826 1.563016704092064
774 844 -5.343572789997779E-1
775 742 -8.243036225707954E-1
775 762 9.72069385888119E-3
775 773 5.312485134895759E-1
775 775 2.594459322343201E1
775 781 -1.0326833647764033E1
775 809 -4.059033590648369
775 827 1.563016704092064
775 845 -5.343572789997779E-1
776 708 5.312485134895759E-1
776 743 -8.243036225707954E-1
776 763 9.72069385888119E-3
776 776 2.594459322343201E1
776 782 -1.0326833647764033E1
776 810 -4.059033590648369
776 828 1.563016704092064
776 846 -5.343572789997779E-1
777 712 -4.3070362327039796E1
777 753 -1.072307058198299E1
777 764 -3.5822603551130925
777 767 -2.641882288870565
777 777 2.1320676534652003E2
777 780 -3.672541236010511E1
777 785 -3.779116557391376
777 790 -1.3640327706464743E2
777 832 3.0998402785415433E1
777 844 -3.492004770179878E1
777 850 7.163623496994197E-1
777 906 -8.400483630914096
778 754 -1.072307058198299E1
778 765 -3.5822603551130925
778 768 -2.641882288870565
778 778 2.1320676534652003E2
778 781 -3.672541236010511E1
778 786 -3.779116557391376
778 791 -1.3640327706464743E2
778 793 -4.3070362327039796E1
778 833 3.0998402785415433E1
778 845 -3.492004770179878E1
778 851 7.163623496994197E-1
778 907 -8.400483630914096
779 713 -4.3070362327039796E1
779 755 -1.072307058198299E1
779 766 -3.5822603551130925
779 769 -2.641882288870565
779 779 2.1320676534652003E2
779 782 -3.672541236010511E1
779 787 -3.779116557391376
779 792 -1.3640327706464743E2
779 834 3.0998402785415433E1
779 846 -3.492004770179878E1
779 852 7.163623496994197E-1
779 908 -8.400483630914096
780 707 1.3939449144609107E1
780 712 1.9478057905537465
780 717 -3.55291927852254E1
780 741 5.491046865543735
780 753 4.289468576315234E1
780 764 8.797863640004493
780 774 -1.0326833647764545E1
780 777 -3.6725412360105906E1
780 780 2.3298114928625208E2
780 808 3.777316251904807
780 817 6.866701522704908
780 844 -6.075964596594115
781 742 5.491046865543735
781 754 4.289468576315234E1
781 765 8.797863640004493
781 773 1.3939449144609107E1
781 775 -1.0326833647764545E1
781 778 -3.6725412360105906E1
781 781 2.3298114928625208E2
781 793 1.9478057905537465
781 794 -3.55291927852254E1
781 809 3.777316251904807
781 818 6.866701522704908
781 845 -6.075964596594115
782 708 1.3939449144609107E1
782 713 1.9478057905537465
782 718 -3.55291927852254E1
782 743 5.491046865543735
782 755 4.289468576315234E1
782 766 8.797863640004493
782 776 -1.0326833647764545E1
782 779 -3.6725412360105906E1
782 782 2.3298114928625208E2
782 810 3.777316251904807
782 819 6.866701522704908
782 846 -6.075964596594115
783 764 7.111093749976405
783 783 2.4821433300333638E1
783 785 -2.8535289950487464
783 795 -2.5081942821507596E1
783 886 1.8208584349462382
783 958 5.66814400785129
784 766 7.111093749976405
784 784 2.4821433300333638E1
784 787 -2.8535289950487464
784 796 -2.5081942821507596E1
784 888 1.8208584349462382
784 960 5.66814400785129
785 764 -3.3639515712991397
785 767 -2.424856915170026E-1
785 777 -3.779116557387738
785 783 -2.853528995048737
785 785 3.058423528293965E1
785 790 -9.358073741299776
785 795 9.100200655365285
785 811 -1.7393636509360803E1
785 906 3.907107996074881
785 958 4.546638295006019
786 765 -3.3639515712991397
786 768 -2.424856915170026E-1
786 778 -3.779116557387738
786 786 3.058423528293965E1
786 791 -9.358073741299776
786 812 -1.7393636509360803E1
786 893 -2.853528995048737
786 907 3.907107996074881
786 957 9.100200655365285
786 959 4.546638295006019
787 766 -3.3639515712991397
787 769 -2.424856915170026E-1
787 779 -3.779116557387738
787 784 -2.853528995048737
787 787 3.058423528293965E1
787 792 -9.358073741299776
787 796 9.100200655365285
787 813 -1.7393636509360803E1
787 908 3.907107996074881
787 960 4.546638295006019
788 767 2.5599702743070614
788 788 2.86517108365571E1
788 795 -2.532467072508797E1
788 811 -9.893642373471336E-1
788 889 -5.705729166561322
788 941 -8.889798490517936E-1
789 769 2.5599702743070614
789 789 2.86517108365571E1
789 796 -2.532467072508797E1
789 813 -9.893642373471336E-1
789 891 -5.705729166561322
789 943 -8.889798490517936E-1
790 712 2.6188294907377212E1
790 753 -3.0748877868325422E1
790 767 8.591808596845283
790 777 -1.364032770646472E2
790 785 -9.358073741299748
790 790 5.149195386823678E2
790 805 -3.192862268264447E2
790 811 7.833390174830939E-1
790 850 1.4618875015766594E1
790 859 8.316236071992066
790 906 -1.3425736981981432E1
790 944 1.305046137750086E1
791 754 -3.0748877868325422E1
791 768 8.591808596845283
791 778 -1.364032770646472E2
791 786 -9.358073741299748
791 791 5.149195386823678E2
791 793 2.6188294907377212E1
791 806 -3.192862268264447E2
791 812 7.833390174830939E-1
791 851 1.4618875015766594E1
791 860 8.316236071992066
791 907 -1.3425736981981432E1
791 945 1.305046137750086E1
792 713 2.6188294907377212E1
792 755 -3.0748877868325422E1
792 769 8.591808596845283
792 779 -1.364032770646472E2
792 787 -9.358073741299748
792 792 5.149195386823678E2
792 807 -3.192862268264447E2
792 813 7.833390174830939E-1
792 852 1.4618875015766594E1
792 861 8.316236071992066
792 908 -1.3425736981981432E1
792 946 1.305046137750086E1
793 710 -1.8541187528596872E1
793 727 6.3203467431406715
793 754 -3.821010728001539E1
793 757 4.215783638167918E1
793 765 4.298732461954926
793 768 3.2235456909359597
793 778 -4.3070362327039575E1
793 781 1.9478057905537673
793 791 2.6188294907377553E1
793 793 5.932478972042094E2
793 794 -2.8297826952443955E2
793 798 -2.0773638121692056E2
793 806 1.6823316436295386E1
794 700 -1.0638119628541858E1
794 710 6.288287935886102
794 715 -4.038650878773661E1
794 739 -1.7424564011593517
794 754 1.5372623074976758E1
794 757 -2.946170943620569E1
794 765 -5.146014767652385
794 773 4.679030236173084
794 781 -3.552919278522463E1
794 793 -2.8297826952444E2
794 794 2.9163253772453663E2
794 818 -2.951792248198656E1
795 764 -1.67936999234307E1
795 767 2.2897528814719084
795 783 -2.5081942821507482E1
795 785 9.100200655365569
795 788 -2.532467072508794E1
795 795 9.196357753872606E1
795 811 -8.78465532939582
795 886 -4.518055428764494
795 889 8.19615124162894E-1
795 941 9.738772562648705
795 958 -2.1461379256037837E1
796 766 -1.67936999234307E1
796 769 2.2897528814719084
796 784 -2.5081942821507482E1
796 787 9.100200655365569
796 789 -2.532467072508794E1
796 796 9.196357753872606E1
796 813 -8.78465532939582
796 888 -4.518055428764494
796 891 8.19615124162894E-1
796 943 9.738772562648705
796 960 -2.1461379256037837E1
797 720 -1.357825369266235
797 727 2.0499304795888605E1
797 751 -7.5574863958635365
797 771 2.557474624032759
797 797 5.027229873784311E1
797 798 -1.9847522970651173E1
797 803 7.902137718072632
797 815 1.2676294549963435E1
798 727 -1.4719271805391895E1
798 751 2.7683427452614215E1
798 754 1.4685086274052308E1
798 757 9.586432426799838
798 768 4.188466786804996E-1
798 793 -2.0773638121691948E2
798 797 -1.984752297065079E1
798 798 3.758984411670714E2
798 803 -4.2308431814689605E1
798 806 -2.926961219134562E1
798 815 -2.075554348501711E1
799 770 8.898838934411591
799 799 3.9608737667670155E1
799 802 -7.3486211207443315
799 805 2.8752654884830493
799 820 1.2274131420936044E1
799 823 -4.106418823405931
799 856 -1.357825369353172
799 859 1.4319713695927359
800 771 8.898838934411591
800 800 3.9608737667670155E1
800 803 -7.3486211207443315
800 806 2.8752654884830493
800 821 1.2274131420936044E1
800 824 -4.106418823405931
800 857 -1.357825369353172
800 860 1.4319713695927359
801 772 8.898838934411591
801 801 3.9608737667670155E1
801 804 -7.3486211207443315
801 807 2.8752654884830493
801 822 1.2274131420936044E1
801 825 -4.106418823405931
801 858 -1.357825369353172
801 861 1.4319713695927359
802 722 7.902137718072629
802 724 -4.230843181469049E1
802 732 1.4697869419807834E1
802 750 -5.503274909573677E1
802 753 1.3434926742071172E1
802 770 -4.875843826437861E-1
802 799 -7.34862112074407
802 802 2.52499916773888E2
802 805 1.8673847592875592E1
802 814 4.325683966059653
802 820 -1.948786409101226E1
802 823 3.9120265668962624
803 733 1.4697869419807834E1
803 751 -5.503274909573677E1
803 754 1.3434926742071172E1
803 771 -4.875843826437861E-1
803 797 7.902137718072629
803 798 -4.230843181469049E1
803 800 -7.34862112074407
803 803 2.52499916773888E2
803 806 1.8673847592875592E1
803 815 4.325683966059653
803 821 -1.948786409101226E1
803 824 3.9120265668962624
804 723 7.902137718072629
804 725 -4.230843181469049E1
804 734 1.4697869419807834E1
804 752 -5.503274909573677E1
804 755 1.3434926742071172E1
804 772 -4.875843826437861E-1
804 801 -7.34862112074407
804 804 2.52499916773888E2
804 807 1.8673847592875592E1
804 816 4.325683966059653
804 822 -1.948786409101226E1
804 825 3.9120265668962624
805 712 1.6823316436295272E1
805 724 -2.926961219134487E1
805 753 2.1308241701447702E1
805 767 -1.427616876935686
805 790 -3.1928622682644607E2
805 799 2.8752654884827225
805 802 1.867384759287628E1
805 805 4.348981271639122E2
805 814 -4.517608919485779
805 820 4.1695122772951834E1
805 823 -3.953047680690977
805 859 -1.6974416539402032E1
806 754 2.1308241701447702E1
806 768 -1.427616876935686
806 791 -3.1928622682644607E2
806 793 1.6823316436295272E1
806 798 -2.926961219134487E1
806 800 2.8752654884827225
806 803 1.867384759287628E1
806 806 4.348981271639122E2
806 815 -4.517608919485779
806 821 4.1695122772951834E1
806 824 -3.953047680690977
806 860 -1.6974416539402032E1
807 713 1.6823316436295272E1
807 725 -2.926961219134487E1
807 755 2.1308241701447702E1
807 769 -1.427616876935686
807 792 -3.1928622682644607E2
807 801 2.8752654884827225
807 804 1.867384759287628E1
807 807 4.348981271639122E2
807 816 -4.517608919485779
807 822 4.1695122772951834E1
807 825 -3.953047680690977
807 861 -1.6974416539402032E1
808 707 -2.4883234765456734
808 761 -3.6167629122935523
808 764 3.731428689380891E-1
808 774 -4.059033590648056
808 780 3.7773162519032155
808 808 2.8002382932561524E1
808 817 2.6661594099193695
809 762 -3.6167629122935523
809 765 3.731428689380891E-1
809 773 -2.4883234765456734
809 775 -4.059033590648056
809 781 3.7773162519032155
809 809 2.8002382932561524E1
809 818 2.6661594099193695
810 708 -2.4883234765456734
810 763 -3.6167629122935523
810 766 3.731428689380891E-1
810 776 -4.059033590648056
810 782 3.7773162519032155
810 810 2.8002382932561524E1
810 819 2.6661594099193695
811 764 1.0025768654059434E1
811 767 -2.632733977747061
811 785 -1.7393636509360334E1
811 788 -9.893642373474439E-1
811 790 7.833390174820991E-1
811 795 -8.784655329395346
811 811 5.851040457920038E1
811 906 1.8566704356772092
811 941 -3.7056325463285233
811 944 -2.3158275049702652
811 958 -1.5269707699233663E1
812 765 1.0025768654059434E1
812 768 -2.632733977747061
812 786 -1.7393636509360334E1
812 791 7.833390174820991E-1
812 812 5.851040457920038E1
812 907 1.8566704356772092
812 942 -3.7056325463285233
812 945 -2.3158275049702652
812 955 -9.893642373474439E-1
812 957 -8.784655329395346
812 959 -1.5269707699233663E1
813 766 1.0025768654059434E1
813 769 -2.632733977747061
813 787 -1.7393636509360334E1
813 789 -9.893642373474439E-1
813 792 7.833390174820991E-1
813 796 -8.784655329395346
813 813 5.851040457920038E1
813 908 1.8566704356772092
813 943 -3.7056325463285233
813 946 -2.3158275049702652
813 960 -1.5269707699233663E1
814 722 1.267629454996347E1
814 724 -2.0755543485021047E1
814 767 -5.8928350676389885
814 770 4.28357220996826
814 802 4.325683966060293
814 805 -4.517608919485522
814 814 7.378080393688833E1
814 823 -8.102508983893307
815 768 -5.8928350676389885
815 771 4.28357220996826
815 797 1.267629454996347E1
815 798 -2.0755543485021047E1
815 803 4.325683966060293
815 806 -4.517608919485522
815 815 7.378080393688833E1
815 824 -8.102508983893307
816 723 1.267629454996347E1
816 725 -2.0755543485021047E1
816 769 -5.8928350676389885
816 772 4.28357220996826
816 804 4.325683966060293
816 807 -4.517608919485522
816 816 7.378080393688833E1
816 825 -8.102508983893307
817 699 -2.5698823080190323
817 707 1.2143197436182618E-1
817 717 -2.9517922481984627E1
817 761 1.272209903608342
817 764 -1.03340065204452
817 780 6.866701522705419
817 808 2.6661594099175505
817 817 5.3020529056220596E1
818 700 -2.5698823080190323
818 762 1.272209903608342
818 765 -1.03340065204452
818 773 1.2143197436182618E-1
818 781 6.866701522705419
818 794 -2.9517922481984627E1
818 809 2.6661594099175505
818 818 5.3020529056220596E1
819 701 -2.5698823080190323
819 708 1.2143197436182618E-1
819 718 -2.9517922481984627E1
819 763 1.272209903608342
819 766 -1.03340065204452
819 782 6.866701522705419
819 810 2.6661594099175505
819 819 5.3020529056220596E1
820 732 -1.7376722264296106E1
820 753 5.4385552730772275
820 799 1.227413142093613E1
820 802 -1.9487864091011627E1
820 805 4.169512277295087E1
820 820 1.8111871526610216E2
820 856 -2.6851674202889253E-2
820 859 -2.330857524389276E1
820 877 -5.4966930905384075
821 733 -1.7376722264296106E1
821 754 5.4385552730772275
821 800 1.227413142093613E1
821 803 -1.9487864091011627E1
821 806 4.169512277295087E1
821 821 1.8111871526610216E2
821 857 -2.6851674202889253E-2
821 860 -2.330857524389276E1
821 878 -5.4966930905384075
822 734 -1.7376722264296106E1
822 755 5.4385552730772275
822 801 1.227413142093613E1
822 804 -1.9487864091011627E1
822 807 4.169512277295087E1
822 822 1.8111871526610216E2
822 858 -2.6851674202889253E-2
822 861 -2.330857524389276E1
822 879 -5.4966930905384075
823 767 -1.988867352097659
823 770 -1.310599688687968E1
823 799 -4.106418823404836
823 802 3.912026566895573
823 805 -3.953047680692114
823 814 -8.102508983893307
823 823 3.4817907867049136E1
824 768 -1.988867352097659
824 771 -1.310599688687968E1
824 800 -4.106418823404836
824 803 3.912026566895573
824 806 -3.953047680692114
824 815 -8.102508983893307
824 824 3.4817907867049136E1
825 769 -1.988867352097659
825 772 -1.310599688687968E1
825 801 -4.106418823404836
825 804 3.912026566895573
825 807 -3.953047680692114
825 816 -8.102508983893307
825 825 3.4817907867049136E1
826 741 1.009366263626373E1
826 774 1.5630167040921776
826 826 2.9998524848058196E1
826 829 3.7606186038173917
826 841 -3.7473066257617234
826 844 -1.7258669187150844E1
826 870 -4.841238200589615
827 742 1.009366263626373E1
827 775 1.5630167040921776
827 827 2.9998524848058196E1
827 830 3.7606186038173917
827 842 -3.7473066257617234
827 845 -1.7258669187150844E1
827 871 -4.841238200589615
828 743 1.009366263626373E1
828 776 1.5630167040921776
828 828 2.9998524848058196E1
828 831 3.7606186038173917
828 843 -3.7473066257617234
828 846 -1.7258669187150844E1
828 872 -4.841238200589615
829 576 5.930091533916425
829 826 3.760618603817676
829 829 5.071971385420582E1
829 838 -1.7777795638822226E1
829 841 -7.741117251604635
829 870 5.054221444521849
829 873 7.636480921236284
830 577 5.930091533916425
830 827 3.760618603817676
830 830 5.071971385420582E1
830 839 -1.7777795638822226E1
830 842 -7.741117251604635
830 871 5.054221444521849
830 874 7.636480921236284
831 634 5.930091533916425
831 828 3.760618603817676
831 831 5.071971385420582E1
831 840 -1.7777795638822226E1
831 843 -7.741117251604635
831 872 5.054221444521849
831 875 7.636480921236284
832 753 1.9604059443325642E1
832 777 3.0998402785416395E1
832 832 4.9284752126015036E2
832 835 1.2047770637598886E1
832 841 -8.377937033948157E1
832 844 -9.068146907871356E1
832 850 -1.913414808076382E2
832 870 -7.418701742382841E1
832 883 7.074557322011859E1
832 906 -3.7405608449027876
832 909 -1.2608866314801705
833 754 1.9604059443325642E1
833 778 3.0998402785416395E1
833 833 4.9284752126015036E2
833 836 1.2047770637598886E1
833 842 -8.377937033948157E1
833 845 -9.068146907871356E1
833 851 -1.913414808076382E2
833 871 -7.418701742382841E1
833 884 7.074557322011859E1
833 907 -3.7405608449027876
833 910 -1.2608866314801705
834 755 1.9604059443325642E1
834 779 3.0998402785416395E1
834 834 4.9284752126015036E2
834 837 1.2047770637598886E1
834 843 -8.377937033948157E1
834 846 -9.068146907871356E1
834 852 -1.913414808076382E2
834 872 -7.418701742382841E1
834 885 7.074557322011859E1
834 908 -3.7405608449027876
834 911 -1.2608866314801705
835 578 1.788579220172926E1
835 832 1.2047770637598745E1
835 835 1.7460317614032874E2
835 838 -4.021782801008956E1
835 841 -4.590797826298041E1
835 847 -7.640078936705382E1
835 850 2.198724445899175E1
835 873 6.923085226305697
835 883 -5.4759581641247195
835 909 -4.606613419156154
835 912 5.9390981834712875
836 833 1.2047770637598745E1
836 836 1.7460317614032874E2
836 839 -4.021782801008956E1
836 842 -4.590797826298041E1
836 848 -7.640078936705382E1
836 851 2.198724445899175E1
836 874 6.923085226305697
836 884 -5.4759581641247195
836 892 1.788579220172926E1
836 910 -4.606613419156154
836 913 5.9390981834712875
837 640 1.788579220172926E1
837 834 1.2047770637598745E1
837 837 1.7460317614032874E2
837 840 -4.021782801008956E1
837 843 -4.590797826298041E1
837 849 -7.640078936705382E1
837 852 2.198724445899175E1
837 875 6.923085226305697
837 885 -5.4759581641247195
837 911 -4.606613419156154
837 914 5.9390981834712875
838 576 -1.110833001260545E1
838 578 -1.5333892202255555E1
838 582 3.6169843788588025
838 829 -1.777779563882177E1
838 835 -4.0217828010090216E1
838 838 1.5556834782824131E2
838 841 2.202657886591055
838 873 -4.662712626127944E1
838 883 2.1082390560027537E1
839 577 -1.110833001260545E1
839 583 3.6169843788588025
839 830 -1.777779563882177E1
839 836 -4.0217828010090216E1
839 839 1.5556834782824131E2
839 842 2.202657886591055
839 874 -4.662712626127944E1
839 884 2.1082390560027537E1
839 892 -1.5333892202255555E1
840 634 -1.110833001260545E1
840 640 -1.5333892202255555E1
840 646 3.6169843788588025
840 831 -1.777779563882177E1
840 837 -4.0217828010090216E1
840 840 1.5556834782824131E2
840 843 2.202657886591055
840 875 -4.662712626127944E1
840 885 2.1082390560027537E1
841 826 -3.747306625761695
841 829 -7.741117251603612
841 832 -8.377937033948218E1
841 835 -4.5907978262982226E1
841 838 2.2026578865919646
841 841 1.3354571812529076E2
841 844 8.141844190058919
841 870 5.903936195092195
841 873 2.5766510715270776E1
841 883 -1.9466095935316176E1
842 827 -3.747306625761695
842 830 -7.741117251603612
842 833 -8.377937033948218E1
842 836 -4.5907978262982226E1
842 839 2.2026578865919646
842 842 1.3354571812529076E2
842 845 8.141844190058919
842 871 5.903936195092195
842 874 2.5766510715270776E1
842 884 -1.9466095935316176E1
843 828 -3.747306625761695
843 831 -7.741117251603612
843 834 -8.377937033948218E1
843 837 -4.5907978262982226E1
843 840 2.2026578865919646
843 843 1.3354571812529076E2
843 846 8.141844190058919
843 872 5.903936195092195
843 875 2.5766510715270776E1
843 885 -1.9466095935316176E1
844 741 -1.8242103505380456E1
844 753 9.834738801781974
844 774 -5.343572789995861E-1
844 777 -3.492004770179915E1
844 780 -6.075964596594712
844 826 -1.7258669187150048E1
844 832 -9.068146907871527E1
844 841 8.141844190059984
844 844 1.8134577618312562E2
844 870 7.502878961568005E-1
845 742 -1.8242103505380456E1
845 754 9.834738801781974
845 775 -5.343572789995861E-1
845 778 -3.492004770179915E1
845 781 -6.075964596594712
845 827 -1.7258669187150048E1
845 833 -9.068146907871527E1
845 842 8.141844190059984
845 845 1.8134577618312562E2
845 871 7.502878961568005E-1
846 743 -1.8242103505380456E1
846 755 9.834738801781974
846 776 -5.343572789995861E-1
846 779 -3.492004770179915E1
846 782 -6.075964596594712
846 828 -1.7258669187150048E1
846 834 -9.068146907871527E1
846 843 8.141844190059984
846 846 1.8134577618312562E2
846 872 7.502878961568005E-1
847 578 9.90990200670543
847 587 1.0319976667677496E1
847 835 -7.640078936705368E1
847 847 2.4430052110151706E2
847 850 6.240891905452596
847 862 2.936385400781276E-1
847 865 -7.679702434705322E1
847 880 4.7245309237710465E1
847 883 -2.928659184200309E1
847 909 3.896503811599135
847 912 -6.817108235492578
847 947 1.1321307000095118
847 950 -3.1521203152056128
848 836 -7.640078936705368E1
848 848 2.4430052110151706E2
848 851 6.240891905452596
848 863 2.936385400781276E-1
848 866 -7.679702434705322E1
848 881 4.7245309237710465E1
848 884 -2.928659184200309E1
848 892 9.90990200670543
848 910 3.896503811599135
848 913 -6.817108235492578
848 948 1.1321307000095118
848 951 -3.1521203152056128
848 956 1.0319976667677496E1
849 640 9.90990200670543
849 686 1.0319976667677496E1
849 837 -7.640078936705368E1
849 849 2.4430052110151706E2
849 852 6.240891905452596
849 864 2.936385400781276E-1
849 867 -7.679702434705322E1
849 882 4.7245309237710465E1
849 885 -2.928659184200309E1
849 911 3.896503811599135
849 914 -6.817108235492578
849 949 1.1321307000095118
849 952 -3.1521203152056128
850 753 -3.8272210183053275E1
850 777 7.163623496996683E-1
850 790 1.4618875015766585E1
850 832 -1.9134148080763816E2
850 835 2.1987244458991658E1
850 847 6.24089190545271
850 850 5.675983174075811E2
850 859 -8.716001966557147E1
850 862 -7.92657185743518E1
850 877 6.482361823652506E1
850 883 -8.466764141848271
850 906 -1.3127420266394779E1
850 909 -1.2556048210304674E1
850 944 7.628537433236673
850 947 1.2281311782473704E1
851 754 -3.8272210183053275E1
851 778 7.163623496996683E-1
851 791 1.4618875015766585E1
851 833 -1.9134148080763816E2
851 836 2.1987244458991658E1
851 848 6.24089190545271
851 851 5.675983174075811E2
851 860 -8.716001966557147E1
851 863 -7.92657185743518E1
851 878 6.482361823652506E1
851 884 -8.466764141848271
851 907 -1.3127420266394779E1
851 910 -1.2556048210304674E1
851 945 7.628537433236673
851 948 1.2281311782473704E1
852 755 -3.8272210183053275E1
852 779 7.163623496996683E-1
852 792 1.4618875015766585E1
852 834 -1.9134148080763816E2
852 837 2.1987244458991658E1
852 849 6.24089190545271
852 852 5.675983174075811E2
852 861 -8.716001966557147E1
852 864 -7.92657185743518E1
852 879 6.482361823652506E1
852 885 -8.466764141848271
852 908 -1.3127420266394779E1
852 911 -1.2556048210304674E1
852 946 7.628537433236673
852 949 1.2281311782473704E1
853 591 7.510255271648577E-1
853 853 7.301584820367702E1
853 856 7.184550923948732E-1
853 862 -3.951727969122456
853 865 -8.941631065790167
853 877 1.3298221133448235E1
853 880 7.343381199210967
854 592 7.510255271648577E-1
854 854 7.301584820367702E1
854 857 7.184550923948732E-1
854 863 -3.951727969122456
854 866 -8.941631065790167
854 878 1.3298221133448235E1
854 881 7.343381199210967
855 593 7.510255271648577E-1
855 855 7.301584820367702E1
855 858 7.184550923948732E-1
855 864 -3.951727969122456
855 867 -8.941631065790167
855 879 1.3298221133448235E1
855 882 7.343381199210967
856 799 -1.3578253693528692
856 820 -2.685167420286083E-2
856 853 7.184550923946422E-1
856 856 1.0785389993236153E2
856 859 -2.7906817364239256E1
856 862 -3.2788987498524
856 877 -7.198263137951899
857 800 -1.3578253693528692
857 821 -2.685167420286083E-2
857 854 7.184550923946422E-1
857 857 1.0785389993236153E2
857 860 -2.7906817364239256E1
857 863 -3.2788987498524
857 878 -7.198263137951899
858 801 -1.3578253693528692
858 822 -2.685167420286083E-2
858 855 7.184550923946422E-1
858 858 1.0785389993236153E2
858 861 -2.7906817364239256E1
858 864 -3.2788987498524
858 879 -7.198263137951899
859 753 1.599046583430276
859 790 8.316236071992037
859 799 1.431971369592075
859 805 -1.697441653940047E1
859 820 -2.33085752438923E1
859 850 -8.716001966557427E1
859 856 -2.7906817364238773E1
859 859 1.0287091407736916E2
859 862 2.6438064475312464
859 877 -6.512946476295383
860 754 1.599046583430276
860 791 8.316236071992037
860 800 1.431971369592075
860 806 -1.697441653940047E1
860 821 -2.33085752438923E1
860 851 -8.716001966557427E1
860 857 -2.7906817364238773E1
860 860 1.0287091407736916E2
860 863 2.6438064475312464
860 878 -6.512946476295383
861 755 1.599046583430276
861 792 8.316236071992037
861 801 1.431971369592075
861 807 -1.697441653940047E1
861 822 -2.33085752438923E1
861 852 -8.716001966557427E1
861 858 -2.7906817364238773E1
861 861 1.0287091407736916E2
861 864 2.6438064475312464
861 879 -6.512946476295383
862 847 2.936385400777297E-1
862 850 -7.92657185743524E1
862 853 -3.951727969122218
862 856 -3.2788987498525066
862 859 2.6438064475320138
862 862 2.760606106019291E2
862 865 -4.8027048510895884
862 877 -2.302642725707298E1
862 880 4.013169543636464E1
862 883 -2.053995402077203E1
863 848 2.936385400777297E-1
863 851 -7.92657185743524E1
863 854 -3.951727969122218
863 857 -3.2788987498525066
863 860 2.6438064475320138
863 863 2.760606106019291E2
863 866 -4.8027048510895884
863 878 -2.302642725707298E1
863 881 4.013169543636464E1
863 884 -2.053995402077203E1
864 849 2.936385400777297E-1
864 852 -7.92657185743524E1
864 855 -3.951727969122218
864 858 -3.2788987498525066
864 861 2.6438064475320138
864 864 2.760606106019291E2
864 867 -4.8027048510895884
864 879 -2.302642725707298E1
864 882 4.013169543636464E1
864 885 -2.053995402077203E1
865 587 -3.2216503162893765E1
865 591 -6.657524739906013E-1
865 594 9.904005638010807E-1
865 847 -7.679702434705294E1
865 853 -8.941631065790407
865 862 -4.8027048510893895
865 865 1.2614086066890118E2
865 880 -4.09636112422606E1
865 883 2.9633649450063043E1
866 592 -6.657524739906013E-1
866 595 9.904005638010807E-1
866 848 -7.679702434705294E1
866 854 -8.941631065790407
866 863 -4.8027048510893895
866 866 1.2614086066890118E2
866 881 -4.09636112422606E1
866 884 2.9633649450063043E1
866 956 -3.2216503162893765E1
867 593 -6.657524739906013E-1
867 596 9.904005638010807E-1
867 686 -3.2216503162893765E1
867 849 -7.679702434705294E1
867 855 -8.941631065790407
867 864 -4.8027048510893895
867 867 1.2614086066890118E2
867 882 -4.09636112422606E1
867 885 2.9633649450063043E1
868 50 6.637222085678346
868 83 -2.120368828501128
868 603 2.250113597832101
868 625 -1.7042989449324345E1
868 702 -4.198629598108502
868 759 -1.7959418906012274E1
868 868 1.3016346045514325E2
868 870 -1.28194209308229E1
868 873 -1.7866513022994294E1
868 883 2.0867694878954076E1
869 51 6.637222085678346
869 53 -4.198629598108502
869 111 -1.7959418906012274E1
869 427 -2.120368828501128
869 604 2.250113597832101
869 626 -1.7042989449324345E1
869 869 1.3016346045514325E2
869 871 -1.28194209308229E1
869 874 -1.7866513022994294E1
869 884 2.0867694878954076E1
870 702 -8.538064846164062
870 704 6.0010384310560525
870 741 -4.147196543424126
870 753 -1.633371958090658E1
870 759 9.865991227165622E-1
870 826 -4.841238200588819
870 829 5.054221444522477
870 832 -7.418701742382946E1
870 841 5.903936195093332
870 844 7.502878961563457E-1
870 868 -1.2819420930824123E1
870 870 1.3436742694462987E2
870 873 2.7312189967802425
870 883 -3.673247079418192E1
871 53 -8.538064846164062
871 111 9.865991227165622E-1
871 705 6.0010384310560525
871 742 -4.147196543424126
871 754 -1.633371958090658E1
871 827 -4.841238200588819
871 830 5.054221444522477
871 833 -7.418701742382946E1
871 842 5.903936195093332
871 845 7.502878961563457E-1
871 869 -1.2819420930824123E1
871 871 1.3436742694462987E2
871 874 2.7312189967802425
871 884 -3.673247079418192E1
872 426 -1.2819420930824123E1
872 703 -8.538064846164062
872 706 6.0010384310560525
872 743 -4.147196543424126
872 755 -1.633371958090658E1
872 760 9.865991227165622E-1
872 828 -4.841238200588819
872 831 5.054221444522477
872 834 -7.418701742382946E1
872 843 5.903936195093332
872 846 7.502878961563457E-1
872 872 1.3436742694462987E2
872 875 2.7312189967802425
872 885 -3.673247079418192E1
873 576 -4.111565038265155
873 578 -3.724584931128942E1
873 582 2.1285147459413565E1
873 600 -1.2356603663379559E1
873 603 -2.4144782045930953
873 625 1.902417386569421E1
873 829 7.636480921236171
873 835 6.923085226306716
873 838 -4.662712626128051E1
873 841 2.5766510715270527E1
873 868 -1.786651302299516E1
873 870 2.7312189967817773
873 873 2.5253264047693514E2
873 883 -6.1473819724586285
874 577 -4.111565038265155
874 583 2.1285147459413565E1
874 601 -1.2356603663379559E1
874 604 -2.4144782045930953
874 626 1.902417386569421E1
874 830 7.636480921236171
874 836 6.923085226306716
874 839 -4.662712626128051E1
874 842 2.5766510715270527E1
874 869 -1.786651302299516E1
874 871 2.7312189967817773
874 874 2.5253264047693514E2
874 884 -6.1473819724586285
874 892 -3.724584931128942E1
875 426 -1.786651302299516E1
875 602 -1.2356603663379559E1
875 605 -2.4144782045930953
875 627 1.902417386569421E1
875 634 -4.111565038265155
875 640 -3.724584931128942E1
875 646 2.1285147459413565E1
875 831 7.636480921236171
875 837 6.923085226306716
875 840 -4.662712626128051E1
875 843 2.5766510715270527E1
875 872 2.7312189967817773
875 875 2.5253264047693514E2
875 885 -6.1473819724586285
876 71 -3.1811611106978623
876 73 -6.314729162157359
876 86 1.195251086442735E1
876 111 -1.8014396925655458E1
876 611 -1.161291736782601E1
876 626 -4.680655268966004E1
876 876 2.1450743921304863E2
876 878 -9.164946884458798
876 881 -2.337690830897807E1
876 884 6.548046231771059E1
877 730 -7.32802516210959E1
877 732 -1.4251179296093401E1
877 745 -9.164946884459601
877 753 -1.66573083030849E1
877 759 1.823446092924903E1
877 820 -5.4966930905374
877 850 6.482361823652481E1
877 853 1.3298221133448212E1
877 856 -7.198263137951593
877 859 -6.512946476294829
877 862 -2.3026427257070708E1
877 877 5.419396412696669E2
877 880 -1.811314027089076E1
877 883 -8.151238402640477E1
878 73 -7.32802516210959E1
878 111 1.823446092924903E1
878 733 -1.4251179296093401E1
878 754 -1.66573083030849E1
878 821 -5.4966930905374
878 851 6.482361823652481E1
878 854 1.3298221133448212E1
878 857 -7.198263137951593
878 860 -6.512946476294829
878 863 -2.3026427257070708E1
878 876 -9.164946884459601
878 878 5.419396412696669E2
878 881 -1.811314027089076E1
878 884 -8.151238402640477E1
879 731 -7.32802516210959E1
879 734 -1.4251179296093401E1
879 746 -9.164946884459601
879 755 -1.66573083030849E1
879 760 1.823446092924903E1
879 822 -5.4966930905374
879 852 6.482361823652481E1
879 855 1.3298221133448212E1
879 858 -7.198263137951593
879 861 -6.512946476294829
879 864 -2.3026427257070708E1
879 879 5.419396412696669E2
879 882 -1.811314027089076E1
879 885 -8.151238402640477E1
880 587 -5.901869229511526
880 591 5.234257663724569E-1
880 594 8.089795406337199E-1
880 607 -3.7858769972882826E1
880 610 3.1535585399903225
880 625 2.4685678797421293E1
880 745 -2.3376908308977363E1
880 847 4.724530923770945E1
880 853 7.343381199211876
880 862 4.013169543636474E1
880 865 -4.0963611242263354E1
880 877 -1.8113140270891037E1
880 880 1.763511467282212E2
880 883 -5.871541871704209E1
881 592 5.234257663724569E-1
881 595 8.089795406337199E-1
881 608 -3.7858769972882826E1
881 611 3.1535585399903225
881 626 2.4685678797421293E1
881 848 4.724530923770945E1
881 854 7.343381199211876
881 863 4.013169543636474E1
881 866 -4.0963611242263354E1
881 876 -2.3376908308977363E1
881 878 -1.8113140270891037E1
881 881 1.763511467282212E2
881 884 -5.871541871704209E1
881 956 -5.901869229511526
882 593 5.234257663724569E-1
882 596 8.089795406337199E-1
882 609 -3.7858769972882826E1
882 612 3.1535585399903225
882 627 2.4685678797421293E1
882 686 -5.901869229511526
882 746 -2.3376908308977363E1
882 849 4.724530923770945E1
882 855 7.343381199211876
882 864 4.013169543636474E1
882 867 -4.0963611242263354E1
882 879 -1.8113140270891037E1
882 882 1.763511467282212E2
882 885 -5.871541871704209E1
883 578 1.4793458094150552E1
883 587 -6.391743490977861E1
883 625 -6.676048249405076E1
883 745 6.548046231771164E1
883 753 5.794821387581244E-1
883 759 -4.172473976615099E1
883 832 7.074557322011783E1
883 835 -5.475958164125544
883 838 2.1082390560029175E1
883 841 -1.946609593531518E1
883 847 -2.9286591842004E1
883 850 -8.466764141846962
883 862 -2.053995402077271E1
883 865 2.9633649450063047E1
883 868 2.0867694878953337E1
883 870 -3.6732470794180955E1
883 873 -6.147381972459083
883 877 -8.151238402640573E1
883 880 -5.871541871704286E1
883 883 3.48475420700844E2
884 111 -4.172473976615099E1
884 626 -6.676048249405076E1
884 754 5.794821387581244E-1
884 833 7.074557322011783E1
884 836 -5.475958164125544
884 839 2.1082390560029175E1
884 842 -1.946609593531518E1
884 848 -2.9286591842004E1
884 851 -8.466764141846962
884 863 -2.053995402077271E1
884 866 2.9633649450063047E1
884 869 2.0867694878953337E1
884 871 -3.6732470794180955E1
884 874 -6.147381972459083
884 876 6.548046231771164E1
884 878 -8.151238402640573E1
884 881 -5.871541871704286E1
884 884 3.48475420700844E2
884 892 1.4793458094150552E1
884 956 -6.391743490977861E1
885 426 2.0867694878953337E1
885 627 -6.676048249405076E1
885 640 1.4793458094150552E1
885 686 -6.391743490977861E1
885 746 6.548046231771164E1
885 755 5.794821387581244E-1
885 760 -4.172473976615099E1
885 834 7.074557322011783E1
885 837 -5.475958164125544
885 840 2.1082390560029175E1
885 843 -1.946609593531518E1
885 849 -2.9286591842004E1
885 852 -8.466764141846962
885 864 -2.053995402077271E1
885 867 2.9633649450063047E1
885 872 -3.6732470794180955E1
885 875 -6.147381972459083
885 879 -8.151238402640573E1
885 882 -5.871541871704286E1
885 885 3.48475420700844E2
886 783 1.8208584349461792
886 795 -4.518055428764286
886 886 3.0407952429353912E1
886 889 -4.1342117085277806E1
886 894 1.811933935592915
886 938 -1.8220305341206755
886 941 6.84477546923674
886 958 -7.883147312868356
887 887 3.0407952429353912E1
887 890 -4.1342117085277806E1
887 893 1.8208584349461792
887 895 1.811933935592915
887 939 -1.8220305341206755
887 942 6.84477546923674
887 957 -4.518055428764286
887 959 -7.883147312868356
888 784 1.8208584349461792
888 796 -4.518055428764286
888 888 3.0407952429353912E1
888 891 -4.1342117085277806E1
888 896 1.811933935592915
888 940 -1.8220305341206755
888 943 6.84477546923674
888 960 -7.883147312868356
889 788 -5.705729166561311
889 795 8.196151241635192E-1
889 886 -4.134211708527735E1
889 889 7.228651489037384E1
889 917 2.4675641739482277
889 938 -5.792410711579219E-1
889 941 -1.4693363566518286E1
889 958 1.728785605487854E1
890 887 -4.134211708527735E1
890 890 7.228651489037384E1
890 918 2.4675641739482277
890 939 -5.792410711579219E-1
890 942 -1.4693363566518286E1
890 955 -5.705729166561311
890 957 8.196151241635192E-1
890 959 1.728785605487854E1
891 789 -5.705729166561311
891 796 8.196151241635192E-1
891 888 -4.134211708527735E1
891 891 7.228651489037384E1
891 919 2.4675641739482277
891 940 -5.792410711579219E-1
891 943 -1.4693363566518286E1
891 960 1.728785605487854E1
892 580 1.3003468920497696E1
892 583 -4.278138113972565E1
892 601 -9.272992437429536E1
892 623 4.246783680535228E1
892 626 4.2725708228271195E1
892 836 1.7885792201729146E1
892 839 -1.5333892202255257E1
892 848 9.909902006705089
892 874 -3.7245849311287714E1
892 884 1.4793458094149889E1
892 892 7.686413011586551E2
892 913 -1.161375565888525E1
892 915 1.0176386974853386E1
892 953 1.922648241230334
892 956 -4.5074484903961843E2
893 765 7.111093749976405
893 786 -2.8535289950487464
893 887 1.8208584349462382
893 893 2.4821433300333638E1
893 957 -2.5081942821507596E1
893 959 5.66814400785129
894 886 1.811933935593391
894 894 5.141568750987005E1
894 897 3.2395034621009273
894 906 1.272022659568438E1
894 935 -2.2296037343484727
894 938 -4.9457240229166715
894 941 -3.523597164383105
894 944 -9.33235734536277
894 958 -9.544887027873934
895 887 1.811933935593391
895 895 5.141568750987005E1
895 898 3.2395034621009273
895 907 1.272022659568438E1
895 936 -2.2296037343484727
895 939 -4.9457240229166715
895 942 -3.523597164383105
895 945 -9.33235734536277
895 959 -9.544887027873934
896 888 1.811933935593391
896 896 5.141568750987005E1
896 899 3.2395034621009273
896 908 1.272022659568438E1
896 937 -2.2296037343484727
896 940 -4.9457240229166715
896 943 -3.523597164383105
896 946 -9.33235734536277
896 960 -9.544887027873934
897 894 3.239503462101098
897 897 3.304211204637164E1
897 900 8.020873667349207
897 906 1.128583955908043E1
897 909 2.9523751973041428
897 932 -1.993534077233187E1
897 935 -4.893195039446809
897 944 -1.3701472170450891E1
897 947 2.017498139853892
898 895 3.239503462101098
898 898 3.304211204637164E1
898 901 8.020873667349207
898 907 1.128583955908043E1
898 910 2.9523751973041428
898 933 -1.993534077233187E1
898 936 -4.893195039446809
898 945 -1.3701472170450891E1
898 948 2.017498139853892
899 896 3.239503462101098
899 899 3.304211204637164E1
899 902 8.020873667349207
899 908 1.128583955908043E1
899 911 2.9523751973041428
899 934 -1.993534077233187E1
899 937 -4.893195039446809
899 946 -1.3701472170450891E1
899 949 2.017498139853892
900 897 8.020873667349036
900 900 3.329049235543516E1
900 903 4.137142857207209
900 909 3.578127609503067
900 912 -7.841346340413367E-1
900 929 -6.0085138543214
900 932 -1.9055330260365707E1
900 947 -7.18118837429861E-1
901 898 8.020873667349036
901 901 3.329049235543516E1
901 904 4.137142857207209
901 910 3.578127609503067
901 913 -7.841346340413367E-1
901 930 -6.0085138543214
901 933 -1.9055330260365707E1
901 948 -7.18118837429861E-1
902 899 8.020873667349036
902 902 3.329049235543516E1
902 905 4.137142857207209
902 911 3.578127609503067
902 914 -7.841346340413367E-1
902 931 -6.0085138543214
902 934 -1.9055330260365707E1
902 949 -7.18118837429861E-1
903 647 2.567241880176283
903 653 -6.909912130431053
903 676 -1.8959457831601185E1
903 900 4.137142857207209
903 903 6.0844320499532785E1
903 912 9.454418047713318
903 929 -2.9174782234212813E1
904 648 2.567241880176283
904 901 4.137142857207209
904 904 6.0844320499532785E1
904 913 9.454418047713318
904 915 -6.909912130431053
904 928 -1.8959457831601185E1
904 930 -2.9174782234212813E1
905 649 2.567241880176283
905 677 -1.8959457831601185E1
905 902 4.137142857207209
905 905 6.0844320499532785E1
905 914 9.454418047713318
905 916 -6.909912130431053
905 931 -2.9174782234212813E1
906 777 -8.400483630914096
906 785 3.9071079960751653
906 790 -1.3425736981981453E1
906 811 1.8566704356759942
906 832 -3.7405608449032983
906 850 -1.3127420266394552E1
906 894 1.272022659568404E1
906 897 1.128583955907986E1
906 906 8.272251234753566E1
906 909 -1.375342938083116
906 944 -3.452017875756732E1
906 958 2.8890809988836565
907 778 -8.400483630914096
907 786 3.9071079960751653
907 791 -1.3425736981981453E1
907 812 1.8566704356759942
907 833 -3.7405608449032983
907 851 -1.3127420266394552E1
907 895 1.272022659568404E1
907 898 1.128583955907986E1
907 907 8.272251234753566E1
907 910 -1.375342938083116
907 945 -3.452017875756732E1
907 959 2.8890809988836565
908 779 -8.400483630914096
908 787 3.9071079960751653
908 792 -1.3425736981981453E1
908 813 1.8566704356759942
908 834 -3.7405608449032983
908 852 -1.3127420266394552E1
908 896 1.272022659568404E1
908 899 1.128583955907986E1
908 908 8.272251234753566E1
908 911 -1.375342938083116
908 946 -3.452017875756732E1
908 960 2.8890809988836565
909 832 -1.2608866314800915
909 835 -4.606613419155699
909 847 3.89650381159959
909 850 -1.2556048210304716E1
909 897 2.9523751973041996
909 900 3.5781276095027073
909 906 -1.3753429380832765
909 909 8.214352389119449E1
909 912 -1.157711627467177E1
909 932 1.29396739381054E-1
909 944 3.84123722044092
909 947 -4.594410580121881E1
909 950 1.4348782988979238E1
910 833 -1.2608866314800915
910 836 -4.606613419155699
910 848 3.89650381159959
910 851 -1.2556048210304716E1
910 898 2.9523751973041996
910 901 3.5781276095027073
910 907 -1.3753429380832765
910 910 8.214352389119449E1
910 913 -1.157711627467177E1
910 933 1.29396739381054E-1
910 945 3.84123722044092
910 948 -4.594410580121881E1
910 951 1.4348782988979238E1
911 834 -1.2608866314800915
911 837 -4.606613419155699
911 849 3.89650381159959
911 852 -1.2556048210304716E1
911 899 2.9523751973041996
911 902 3.5781276095027073
911 908 -1.3753429380832765
911 911 8.214352389119449E1
911 914 -1.157711627467177E1
911 934 1.29396739381054E-1
911 946 3.84123722044092
911 949 -4.594410580121881E1
911 952 1.4348782988979238E1
912 578 -1.1613755658885704E1
912 587 2.1605666302255965E1
912 653 -1.1471185815710003E1
912 681 8.533983198108743
912 835 5.93909818347197
912 847 -6.817108235492805
912 900 -7.841346340413367E-1
912 903 9.454418047713261
912 909 -1.1577116274671932E1
912 912 9.03925734113453E1
912 929 -6.244965117930541
912 947 1.2269397533195653E1
912 950 -5.161129695910711E1
913 836 5.93909818347197
913 848 -6.817108235492805
913 892 -1.1613755658885704E1
913 901 -7.841346340413367E-1
913 904 9.454418047713261
913 910 -1.1577116274671932E1
913 913 9.03925734113453E1
913 915 -1.1471185815710003E1
913 930 -6.244965117930541
913 948 1.2269397533195653E1
913 951 -5.161129695910711E1
913 953 8.533983198108743
913 956 2.1605666302255965E1
914 640 -1.1613755658885704E1
914 686 2.1605666302255965E1
914 837 5.93909818347197
914 849 -6.817108235492805
914 902 -7.841346340413367E-1
914 905 9.454418047713261
914 911 -1.1577116274671932E1
914 914 9.03925734113453E1
914 916 -1.1471185815710003E1
914 931 -6.244965117930541
914 949 1.2269397533195653E1
914 952 -5.161129695910711E1
914 954 8.533983198108743
915 580 4.8881375649847314E-1
915 648 1.2925202088136814E1
915 655 -6.160888072976405
915 665 -6.883484802388923E-1
915 892 1.0176386974853102E1
915 904 -6.909912130430712
915 913 -1.1471185815711722E1
915 915 1.352334621977769E2
915 926 -1.2880307932053583E1
915 928 -2.221156919689986E1
915 930 2.437374486858856E1
915 951 8.99994527114032E-2
915 953 -3.587462390173279E1
916 581 4.8881375649847314E-1
916 640 1.0176386974853102E1
916 649 1.2925202088136814E1
916 656 -6.160888072976405
916 666 -6.883484802388923E-1
916 677 -2.221156919689986E1
916 905 -6.909912130430712
916 914 -1.1471185815711722E1
916 916 1.352334621977769E2
916 927 -1.2880307932053583E1
916 931 2.437374486858856E1
916 952 8.99994527114032E-2
916 954 -3.587462390173279E1
917 889 2.467564173948263
917 917 5.5867776929217996E1
917 920 4.743295978687755
917 935 -3.133755980708473E1
917 938 -1.6099635151024216E1
917 941 -2.850870269990793E1
917 944 1.83886253722076E1
918 890 2.467564173948263
918 918 5.5867776929217996E1
918 921 4.743295978687755
918 936 -3.133755980708473E1
918 939 -1.6099635151024216E1
918 942 -2.850870269990793E1
918 945 1.83886253722076E1
919 891 2.467564173948263
919 919 5.5867776929217996E1
919 922 4.743295978687755
919 937 -3.133755980708473E1
919 940 -1.6099635151024216E1
919 943 -2.850870269990793E1
919 946 1.83886253722076E1
920 917 4.743295978687854
920 920 6.323220685007766E1
920 923 5.622188467699388
920 932 -3.994269090705606E1
920 935 -2.0433551555623183E1
920 944 -2.8702571947568345E1
920 947 1.8018591226275177E1
921 918 4.743295978687854
921 921 6.323220685007766E1
921 924 5.622188467699388
921 933 -3.994269090705606E1
921 936 -2.0433551555623183E1
921 945 -2.8702571947568345E1
921 948 1.8018591226275177E1
922 919 4.743295978687854
922 922 6.323220685007766E1
922 925 5.622188467699388
922 934 -3.994269090705606E1
922 937 -2.0433551555623183E1
922 946 -2.8702571947568345E1
922 949 1.8018591226275177E1
923 663 2.4782507289747713
923 920 5.622188467699246
923 923 5.22816634020851E1
923 929 -4.012018811751502E1
923 932 -1.879146516704202E1
923 947 -1.1655755209862612E1
923 950 1.4464908361549838E1
924 921 5.622188467699246
924 924 5.22816634020851E1
924 926 2.4782507289747713
924 930 -4.012018811751502E1
924 933 -1.879146516704202E1
924 948 -1.1655755209862612E1
924 951 1.4464908361549838E1
925 922 5.622188467699246
925 925 5.22816634020851E1
925 927 2.4782507289747713
925 931 -4.012018811751502E1
925 934 -1.879146516704202E1
925 949 -1.1655755209862612E1
925 952 1.4464908361549838E1
926 665 -4.020668674448814
926 915 -1.288030793205344E1
926 924 2.4782507289747713
926 926 2.7322949391226675E1
926 928 -1.3889157661503118E1
926 930 -2.328514416510106E1
926 951 1.646298811502021
926 953 2.3850339661327395
927 666 -4.020668674448814
927 677 -1.3889157661503118E1
927 916 -1.288030793205344E1
927 925 2.4782507289747713
927 927 2.7322949391226675E1
927 931 -2.328514416510106E1
927 952 1.646298811502021
927 954 2.3850339661327395
928 648 -3.287507824006614E1
928 655 1.3612353999175426E1
928 665 3.8296076283004945
928 674 6.148339141800179
928 904 -1.8959457831600957E1
928 915 -2.2211569196900825E1
928 926 -1.3889157661503642E1
928 928 6.3405592620885926E1
928 930 5.957770799312371
928 953 -1.8740028751483777
929 653 2.4373744868588226E1
929 663 -2.328514416510083E1
929 676 5.957770799312087
929 900 -6.008513854321201
929 903 -2.91747822342127E1
929 912 -6.244965117930004
929 923 -4.0120188117514914E1
929 929 1.1634445003443713E2
929 932 1.7606135545140802
929 947 5.837610273914365
929 950 -1.844915258909203E1
930 901 -6.008513854321201
930 904 -2.91747822342127E1
930 913 -6.244965117930004
930 915 2.4373744868588226E1
930 924 -4.0120188117514914E1
930 926 -2.328514416510083E1
930 928 5.957770799312087
930 930 1.1634445003443713E2
930 933 1.7606135545140802
930 948 5.837610273914365
930 951 -1.844915258909203E1
931 677 5.957770799312087
931 902 -6.008513854321201
931 905 -2.91747822342127E1
931 914 -6.244965117930004
931 916 2.4373744868588226E1
931 925 -4.0120188117514914E1
931 927 -2.328514416510083E1
931 931 1.1634445003443713E2
931 934 1.7606135545140802
931 949 5.837610273914365
931 952 -1.844915258909203E1
932 897 -1.9935340772331188E1
932 900 -1.9055330260366304E1
932 909 1.2939673938047136E-1
932 920 -3.994269090705609E1
932 923 -1.8791465167041622E1
932 929 1.7606135545141797
932 932 9.568488686886027E1
932 935 7.070012221715096E-1
932 944 2.4772215136558756E1
932 947 -1.798367629564283E1
933 898 -1.9935340772331188E1
933 901 -1.9055330260366304E1
933 910 1.2939673938047136E-1
933 921 -3.994269090705609E1
933 924 -1.8791465167041622E1
933 930 1.7606135545141797
933 933 9.568488686886027E1
933 936 7.070012221715096E-1
933 945 2.4772215136558756E1
933 948 -1.798367629564283E1
934 899 -1.9935340772331188E1
934 902 -1.9055330260366304E1
934 911 1.2939673938047136E-1
934 922 -3.994269090705609E1
934 925 -1.8791465167041622E1
934 931 1.7606135545141797
934 934 9.568488686886027E1
934 937 7.070012221715096E-1
934 946 2.4772215136558756E1
934 949 -1.798367629564283E1
935 894 -2.229603734348629
935 897 -4.893195039446354
935 917 -3.133755980708466E1
935 920 -2.0433551555623183E1
935 932 7.070012221717086E-1
935 935 5.5248345135164136E1
935 938 -1.9835911036796716E-2
935 941 2.2353735650459868E1
935 944 -1.178346308625894E1
936 895 -2.229603734348629
936 898 -4.893195039446354
936 918 -3.133755980708466E1
936 921 -2.0433551555623183E1
936 933 7.070012221717086E-1
936 936 5.5248345135164136E1
936 939 -1.9835911036796716E-2
936 942 2.2353735650459868E1
936 945 -1.178346308625894E1
937 896 -2.229603734348629
937 899 -4.893195039446354
937 919 -3.133755980708466E1
937 922 -2.0433551555623183E1
937 934 7.070012221717086E-1
937 937 5.5248345135164136E1
937 940 -1.9835911036796716E-2
937 943 2.2353735650459868E1
937 946 -1.178346308625894E1
938 886 -1.8220305341208176
938 889 -5.792410711578668E-1
938 894 -4.94572402291643
938 917 -1.609963515102399E1
938 935 -1.9835911036704346E-2
938 938 3.174028304737658E1
938 941 -1.29703512211221E1
939 887 -1.8220305341208176
939 890 -5.792410711578668E-1
939 895 -4.94572402291643
939 918 -1.609963515102399E1
939 936 -1.9835911036704346E-2
939 939 3.174028304737658E1
939 942 -1.29703512211221E1
940 888 -1.8220305341208176
940 891 -5.792410711578668E-1
940 896 -4.94572402291643
940 919 -1.609963515102399E1
940 937 -1.9835911036704346E-2
940 940 3.174028304737658E1
940 943 -1.29703512211221E1
941 788 -8.889798490517306E-1
941 795 9.738772562648222
941 811 -3.705632546328353
941 886 6.844775469236492
941 889 -1.4693363566518485E1
941 894 -3.5235971643829913
941 917 -2.850870269990736E1
941 935 2.235373565045957E1
941 938 -1.2970351221121716E1
941 941 6.611817159703808E1
941 944 -1.825633825778739E1
941 958 -1.0096577207179976E1
942 812 -3.705632546328353
942 887 6.844775469236492
942 890 -1.4693363566518485E1
942 895 -3.5235971643829913
942 918 -2.850870269990736E1
942 936 2.235373565045957E1
942 939 -1.2970351221121716E1
942 942 6.611817159703808E1
942 945 -1.825633825778739E1
942 955 -8.889798490517306E-1
942 957 9.738772562648222
942 959 -1.0096577207179976E1
943 789 -8.889798490517306E-1
943 796 9.738772562648222
943 813 -3.705632546328353
943 888 6.844775469236492
943 891 -1.4693363566518485E1
943 896 -3.5235971643829913
943 919 -2.850870269990736E1
943 937 2.235373565045957E1
943 940 -1.2970351221121716E1
943 943 6.611817159703808E1
943 946 -1.825633825778739E1
943 960 -1.0096577207179976E1
944 790 1.3050461377500604E1
944 811 -2.3158275049698105
944 850 7.628537433236957
944 894 -9.33235734536161
944 897 -1.3701472170451403E1
944 906 -3.452017875756815E1
944 909 3.841237220440579
944 917 1.8388625372207656E1
944 920 -2.8702571947567776E1
944 932 2.47722151365585E1
944 935 -1.1783463086258841E1
944 941 -1.8256338257786794E1
944 944 8.37969256747891E1
944 947 -1.3636770568541102E1
944 958 4.226150329160532
945 791 1.3050461377500604E1
945 812 -2.3158275049698105
945 851 7.628537433236957
945 895 -9.33235734536161
945 898 -1.3701472170451403E1
945 907 -3.452017875756815E1
945 910 3.841237220440579
945 918 1.8388625372207656E1
945 921 -2.8702571947567776E1
945 933 2.47722151365585E1
945 936 -1.1783463086258841E1
945 942 -1.8256338257786794E1
945 945 8.37969256747891E1
945 948 -1.3636770568541102E1
945 959 4.226150329160532
946 792 1.3050461377500604E1
946 813 -2.3158275049698105
946 852 7.628537433236957
946 896 -9.33235734536161
946 899 -1.3701472170451403E1
946 908 -3.452017875756815E1
946 911 3.841237220440579
946 919 1.8388625372207656E1
946 922 -2.8702571947567776E1
946 934 2.47722151365585E1
946 937 -1.1783463086258841E1
946 943 -1.8256338257786794E1
946 946 8.37969256747891E1
946 949 -1.3636770568541102E1
946 960 4.226150329160532
947 847 1.1321307000095118
947 850 1.2281311782473832E1
947 897 2.017498139853892
947 900 -7.181188374297042E-1
947 909 -4.59441058012185E1
947 912 1.2269397533195685E1
947 920 1.8018591226275603E1
947 923 -1.1655755209862413E1
947 929 5.837610273914194
947 932 -1.7983676295641523E1
947 944 -1.3636770568540506E1
947 947 6.934202963221827E1
947 950 -1.6491073698111023E1
948 848 1.1321307000095118
948 851 1.2281311782473832E1
948 898 2.017498139853892
948 901 -7.181188374297042E-1
948 910 -4.59441058012185E1
948 913 1.2269397533195685E1
948 921 1.8018591226275603E1
948 924 -1.1655755209862413E1
948 930 5.837610273914194
948 933 -1.7983676295641523E1
948 945 -1.3636770568540506E1
948 948 6.934202963221827E1
948 951 -1.6491073698111023E1
949 849 1.1321307000095118
949 852 1.2281311782473832E1
949 899 2.017498139853892
949 902 -7.181188374297042E-1
949 911 -4.59441058012185E1
949 914 1.2269397533195685E1
949 922 1.8018591226275603E1
949 925 -1.1655755209862413E1
949 931 5.837610273914194
949 934 -1.7983676295641523E1
949 946 -1.3636770568540506E1
949 949 6.934202963221827E1
949 952 -1.6491073698111023E1
950 587 -5.15551521505577
950 653 8.999945271279586E-2
950 663 1.6462988115018504
950 681 -6.340788225456347
950 847 -3.152120315205599
950 909 1.4348782988979162E1
950 912 -5.1611296959111E1
950 923 1.4464908361549952E1
950 929 -1.844915258909203E1
950 947 -1.6491073698110654E1
950 950 7.378744675775397E1
951 848 -3.152120315205599
951 910 1.4348782988979162E1
951 913 -5.1611296959111E1
951 915 8.999945271279586E-2
951 924 1.4464908361549952E1
951 926 1.6462988115018504
951 930 -1.844915258909203E1
951 948 -1.6491073698110654E1
951 951 7.378744675775397E1
951 953 -6.340788225456347
951 956 -5.15551521505577
952 686 -5.15551521505577
952 849 -3.152120315205599
952 911 1.4348782988979162E1
952 914 -5.1611296959111E1
952 916 8.999945271279586E-2
952 925 1.4464908361549952E1
952 927 1.6462988115018504
952 931 -1.844915258909203E1
952 949 -1.6491073698110654E1
952 952 7.378744675775397E1
952 954 -6.340788225456347
953 580 2.9843287113811385
953 585 -2.598890001000513E-1
953 655 -1.1564216866985504
953 665 -1.1286898535273928
953 683 9.584261942033308E-1
953 892 1.922648241230121
953 913 8.533983198109244
953 915 -3.587462390173208E1
953 926 2.3850339661329887
953 928 -1.874002875148463
953 951 -6.340788225455309
953 953 5.456753451055023E1
953 956 -7.9429857071284475
954 581 2.9843287113811385
954 586 -2.598890001000513E-1
954 640 1.922648241230121
954 656 -1.1564216866985504
954 666 -1.1286898535273928
954 677 -1.874002875148463
954 684 9.584261942033308E-1
954 686 -7.9429857071284475
954 914 8.533983198109244
954 916 -3.587462390173208E1
954 927 2.3850339661329887
954 952 -6.340788225455309
954 954 5.456753451055023E1
955 768 2.5599702743070614
955 812 -9.893642373471336E-1
955 890 -5.705729166561322
955 942 -8.889798490517936E-1
955 955 2.86517108365571E1
955 957 -2.532467072508797E1
956 580 1.6530283337752547E1
956 585 4.829409670914703
956 595 -6.795794652743005
956 608 6.799135845073098E1
956 623 9.34528426019268
956 626 3.982164484595456E1
956 848 1.0319976667677503E1
956 866 -3.221650316289372E1
956 881 -5.901869229512407
956 884 -6.391743490977874E1
956 892 -4.5074484903961775E2
956 913 2.1605666302256136E1
956 951 -5.155515215055851
956 953 -7.942985707128902
956 956 8.498861530518401E2
957 765 -1.67936999234307E1
957 768 2.2897528814719084
957 786 9.100200655365569
957 812 -8.78465532939582
957 887 -4.518055428764494
957 890 8.19615124162894E-1
957 893 -2.5081942821507482E1
957 942 9.738772562648705
957 955 -2.532467072508794E1
957 957 9.196357753872606E1
957 959 -2.1461379256037837E1
958 783 5.668144007851593
958 785 4.546638295004541
958 795 -2.1461379256036974E1
958 811 -1.5269707699233265E1
958 886 -7.883147312869037
958 889 1.7287856054879278E1
958 894 -9.544887027873166
958 906 2.889080998883543
958 941 -1.0096577207179884E1
958 944 4.2261503291608165
958 958 5.148301219384797E1
959 786 4.546638295004541
959 812 -1.5269707699233265E1
959 887 -7.883147312869037
959 890 1.7287856054879278E1
959 893 5.668144007851593
959 895 -9.544887027873166
959 907 2.889080998883543
959 942 -1.0096577207179884E1
959 945 4.2261503291608165
959 957 -2.1461379256036974E1
959 959 5.148301219384797E1
960 784 5.668144007851593
960 787 4.546638295004541
960 796 -2.1461379256036974E1
960 813 -1.5269707699233265E1
960 888 -7.883147312869037
960 891 1.7287856054879278E1
960 896 -9.544887027873166
960 908 2.889080998883543
960 943 -1.0096577207179884E1
960 946 4.2261503291608165
960 960 5.148301219384797E1
