%%MatrixMarket matrix coordinate real general
%Reordered K matrix using quantum partitioning with k=16
960 960 30282
1 1 1.4202613743371488E1
1 2 4.695143640710058
1 3 7.140445271216104E-1
1 4 9.616887878106677E-2
1 5 4.85870654952019E-1
1 20 -1.1523597794283605E1
1 21 -3.0963201479005877
1 22 -1.7632279022967963
1 23 3.4294370706915905E-1
1 24 -7.13564345815356E-1
1 32 -2.89868001148317
1 33 3.5840496591379256E-1
1 34 -1.3187221866601857
1 121 8.444072404000741E-1
1 122 -6.300874683266391E-2
1 123 3.718219258558835E-1
1 124 1.7140382663304843E-1
1 132 -5.144155606037382E-1
1 148 4.2444019717040254E-1
1 149 -3.914970709606647E-1
1 150 -4.2422954114183103E-1
2 1 4.695143640710058
2 2 2.973637357142584E1
2 3 4.0890623296100137E-1
2 4 6.48417777791247E-2
2 5 1.7105807193349585
2 20 -2.1290582431484433
2 21 -2.7166503145735795E1
2 22 3.048327322442368E-2
2 23 1.3616773333744436
2 24 -5.503063982390806
2 32 -2.2107717948520746
2 33 9.181654267794855E-1
2 34 -3.4706056999792763
2 121 5.198239150079921E-1
2 122 -5.936089150787467E-1
2 123 1.9989180841138725
2 124 1.2943814897140915
2 132 -2.042516000061663
2 148 -1.3145270239029576
2 149 -1.0029411125067356
2 150 2.6943004532312194
3 1 7.140445271216104E-1
3 2 4.0890623296100137E-1
3 3 1.1709973998924884E1
3 4 1.4541775446290442E-1
3 5 4.577801941274049
3 6 5.326052252969606E-1
3 7 1.284607305583873E-1
3 8 4.478018772017619E-1
3 22 -7.824235105994361
3 23 -6.238464231404203E-1
3 24 -2.817767811909029
3 25 -1.7214514808025683
3 26 4.678848173553146E-1
3 27 -8.628646172279697E-1
3 32 2.0225717751241742E-1
3 33 -5.756743419206656E-1
3 34 -2.0478393376884274E-1
3 35 -3.6131943420589434
3 36 5.49088583901504E-1
3 37 -1.5490936885309714
3 124 -9.13311212170245E-2
4 1 9.616887878106677E-2
4 2 6.48417777791247E-2
4 3 1.4541775446290442E-1
4 4 1.1110401499976964E1
4 5 7.067325446589937E-1
4 6 -1.2153926943906795E-1
4 7 -3.5784532175545924E-1
4 8 -2.719251417481477E-1
4 22 -3.7384642314296446E-1
4 23 -7.578857816281337
4 24 -1.9034759922313649
4 25 2.8038481735722287E-1
4 26 -1.9054844480873354
4 27 1.4276069941735223
4 32 -5.756743419206654E-1
4 33 8.100398765241889E-1
4 34 -5.149238542544967E-1
4 35 5.490885839015036E-1
4 36 -2.1407417807741527
4 37 4.9114367162236877E-1
4 124 6.248799039713113E-2
5 1 4.85870654952019E-1
5 2 1.7105807193349585
5 3 4.577801941274049
5 4 7.067325446589937E-1
5 5 2.162486398336062E1
5 6 4.450552656461665E-1
5 7 2.719251417464469E-1
5 8 1.2985672559737484
5 22 -1.9249106690607989
5 23 -1.9034759922313662
5 24 -1.7673890215185377E1
5 25 -4.441223628427238E-2
5 26 1.4276069941735232
5 27 -5.718651864356811
5 32 -1.0948944650614774
5 33 -1.058774137749092
5 34 2.7422242928499383
5 35 -2.444510491465686
5 36 1.0098778938601771
5 37 -3.983694171977076
5 124 -4.538924444586828E-1
6 3 5.326052252969606E-1
6 4 -1.2153926943906795E-1
6 5 4.450552656461665E-1
6 6 1.064878827370114E1
6 7 2.640175800815755E-1
6 8 4.3006707437003655
6 25 -1.5333134004948226
6 26 -5.067310216949374E-1
6 27 -6.513299427327914E-1
6 28 -5.523110720269887
6 29 4.0538481735595056E-1
6 30 -2.5741741410382675
6 35 -3.8217075892386094
6 36 -9.775214185707362E-1
6 37 -1.6707693175111442
6 696 2.754578616575126E-1
6 697 3.0749920806812825E-2
6 698 3.992658667324638E-1
6 735 -5.787196506522939E-1
6 736 9.056393914604031E-1
6 737 -2.4871847479679232E-1
7 3 1.284607305583873E-1
7 4 -3.5784532175545924E-1
7 5 2.719251417464469E-1
7 6 2.640175800815755E-1
7 7 1.0221819481118098E1
7 8 2.0479047394914113E-1
7 25 -1.942310216981183E-1
7 26 -2.19991144617298
7 27 -1.7845087427169042
7 28 1.553848173584951E-1
7 29 -4.989832283727362
7 30 1.4276069941735252
7 35 -9.775214185707364E-1
7 36 -2.13172054182768
7 37 -6.314925760907782E-1
7 696 -2.817500791900063E-1
7 697 -8.697151769109412E-1
7 698 -7.337706729067561E-2
7 735 9.056393914604033E-1
7 736 3.272052892763232E-1
7 737 5.850557762292455E-1
8 3 4.478018772017619E-1
8 4 -2.719251417481477E-1
8 5 1.2985672559737484
8 6 4.3006707437003655
8 7 2.0479047394914113E-1
8 8 1.7670137709515764E1
8 25 1.6712243821152384E-1
8 26 -1.7845087427169042
8 27 -5.202741940043479
8 28 -1.6813169981814695
8 29 1.427606994173525
8 30 -1.271221004962958E1
8 35 -2.6433090503277943
8 36 -1.218509114488531
8 37 -3.3591152696926567
8 696 5.533532186047994E-1
8 697 5.136394711070776E-1
8 698 8.410187349846606E-1
8 735 -1.1443222292091868
8 736 1.1289060597238398
8 737 1.4643435588915432
9 9 6.23606750755595E1
9 10 1.7465538633827947E1
9 11 -1.6045491209788094
9 12 4.797896650264163E-1
9 13 -2.359323890366628E-1
9 20 -4.800045855747248E1
9 21 -1.7296908904521153E1
9 22 -8.76847554932385E-1
9 23 -6.228498855207146E-1
9 24 -2.899400673561693E-1
9 32 2.4384642428604578E-1
9 33 1.4748720052300635
9 34 1.5874440224641664
9 40 -1.136215470371853
9 41 -3.356913348044415E-1
9 42 3.976223626521712E-1
9 125 2.4217895004246748E-1
9 126 -3.4542740436117897E-1
9 127 4.045435884892013E-1
9 128 3.7328832666371246
9 132 -1.1858940206594433
9 148 -6.070975434719033
9 149 -2.867024491308043
9 150 2.0671162989408116
9 154 -3.5320220157178133
9 155 -1.222832094994205
9 156 -1.3993729792071705
9 221 -1.6256322956956297
9 222 8.921742947544224E-1
9 223 -2.700110566253146
10 9 1.7465538633827947E1
10 10 1.1520121342111672E2
10 11 4.8085127436791664E-2
10 12 1.9663486862520294
10 13 -1.7817948373660608
10 20 -1.8338575571177195E1
10 21 -1.0048402534581254E2
10 22 -8.107734006842677E-1
10 23 -1.556202666713888
10 24 -5.250337206495045E-1
10 32 1.5874440224641688
10 33 -1.8067880570688313
10 34 7.858017430778035E-1
10 40 1.1734528344309298
10 41 1.8140439385854554
10 42 -3.918719028923123
10 125 1.4954645003853984E-1
10 126 7.569863737633498E-1
10 127 1.1908161073945162E-1
10 128 3.9498802744845802
10 132 -4.153589207833682
10 148 2.0671162989408103
10 149 1.4192736043565537
10 150 -3.4189424261062773
10 154 -6.417238290245846E-1
10 155 -2.7837236181989886
10 156 -5.496916449042687
10 221 -2.7001105662531466
10 222 3.9377067237342356E-1
10 223 -4.806649670337607E-1
11 9 -1.6045491209788094
11 10 4.8085127436791664E-2
11 11 6.193206456652936E1
11 12 -1.6881009311987054
11 13 1.9866839909133933E1
11 14 9.813399649605475E-1
11 15 2.143821198797151E-1
11 16 6.57984181696827E-1
11 22 -4.028547277922661E1
11 23 -9.292814871337531E-1
11 24 -1.7249422703755684E1
11 25 -1.485364519235321
11 26 -8.935261796177439E-1
11 27 -5.125934986628733E-1
11 32 -9.078736331864363
11 33 8.28469607747129E-1
11 34 1.1840520426193142
11 35 1.8221134452002028
11 36 1.3175917298854536
11 37 1.272675413670249
11 40 -2.1255457269053415
11 41 4.2390013507961755E-1
11 42 1.006780194424024
11 43 -1.0572749904113069E1
11 44 2.3842970254613554
11 45 -4.320336334849349
11 128 5.69642781749522E-2
11 221 4.169004056334054E-1
11 222 -1.7146962982780196
11 223 -1.9540643317132285
12 9 4.797896650264163E-1
12 10 1.9663486862520294
12 11 -1.6881009311987054
12 12 5.596356030899857E1
12 13 7.164119612131149E-1
12 14 -1.5643600015529674E-1
12 15 -7.649701457106153E-1
12 16 9.464602089403393E-1
12 22 -1.0126148204662309
12 23 -3.28262715893984E1
12 24 -2.3763296240321803
12 25 -1.0393595129496065
12 26 -1.2337137410852097
12 27 -1.6315508504842495
12 32 8.284696077471319E-1
12 33 -7.036297009166599
12 34 3.3042926567153624E-1
12 35 1.3175917298854511
12 36 1.2434331846252795
12 37 5.371738880726524E-2
12 40 8.780515884471068E-1
12 41 -2.416777874317153
12 42 -2.21988610482793
12 43 2.107304971941754
12 44 -1.0213653317387829E1
12 45 2.5144885038444285
12 128 -5.1053447957533065
12 221 -1.71469629827802
12 222 2.390034979195277
12 223 -3.0008943538435406E-1
13 9 -2.359323890366628E-1
13 10 -1.7817948373660608
13 11 1.9866839909133933E1
13 12 7.164119612131149E-1
13 13 9.71429319350594E1
13 14 9.273343233115785E-1
13 15 9.464602089403403E-1
13 16 8.870876438470804E-1
13 22 -1.8291089370411704E1
13 23 -2.3763296240321816
13 24 -7.421242608806816E1
13 25 -1.0334268319909903
13 26 -1.6315508504842502
13 27 -7.768795029530408E-1
13 32 1.1840520426193122
13 33 3.3042926567153363E-1
13 34 -7.170612435185061
13 35 1.2726754136702474
13 36 5.371738880726832E-2
13 37 2.279643177487937
13 40 1.7790967194652927
13 41 -2.219886104827931
13 42 -4.575083180060123
13 43 -3.5154854850477766
13 44 2.5144885038444293
13 45 -1.3444164286184238E1
13 128 1.9663486862520299
13 221 -1.9540643317132291
13 222 -3.0008943538435423E-1
13 223 1.6512975734222812
14 11 9.813399649605475E-1
14 12 -1.5643600015529674E-1
14 13 9.273343233115785E-1
14 14 3.8882392075872616E1
14 15 3.6289171009577217
14 16 1.0945866345578567E1
14 17 4.219849199898103E-1
14 18 -2.789564264054029E-1
14 19 -3.9472054569776105E-1
14 25 -2.312935426201456E1
14 26 -6.252471950334237E-1
14 27 -1.041048679055886E1
14 28 -1.8485670559329803
14 29 4.0943245536509554E-1
14 30 7.188386868614716E-1
14 35 -3.9721464817641543
14 36 -1.3961402785096837
14 37 2.4341478646486814
14 43 -7.861165349744134
14 44 -2.685535501743937
14 45 -2.821713564037255
14 46 -5.1552151545395775E-2
14 47 6.153605110414327E-1
14 48 1.1555179970703229
14 84 -2.204304235571068
14 109 -1.2701795757960788
14 110 -2.014626831147858
15 11 2.143821198797151E-1
15 12 -7.649701457106153E-1
15 13 9.464602089403403E-1
15 14 3.6289171009577217
15 15 3.699144850233111E1
15 16 3.5763263285703157
15 17 -6.018730930966328E-1
15 18 -8.798618890073677E-1
15 19 1.2519923468739251
15 25 -6.877471950327771E-1
15 26 -1.734097082150292E1
15 27 -1.223663137862384
15 28 2.427657887001076E-1
15 29 -4.468944603031826
15 30 -2.8630254134513358
15 35 -1.3961402785096837
15 36 -3.9406316556208534
15 37 -4.666910662993348E-1
15 43 -2.300118835053353
15 44 -9.012857934777388
15 45 -3.181067271361586
15 46 -2.021588801612175
15 47 1.5734103093701586
15 48 1.438377348932036
15 84 -2.557036049154203E-1
15 109 1.155517997070323
15 110 3.862576952199004E-1
16 11 6.57984181696827E-1
16 12 9.464602089403393E-1
16 13 8.870876438470804E-1
16 14 1.0945866345578567E1
16 15 3.5763263285703157
16 16 5.592534569810533E1
16 17 -1.0430387907187133E-1
16 18 1.2519923468739265
16 19 1.096993951877024
16 25 -1.1452153457214857E1
16 26 -1.2236631378623841
16 27 -3.778430297806127E1
16 28 1.9800535353333343E-1
16 29 -2.863025413451335
16 30 -2.512533343920568
16 35 2.434147864648678
16 36 -4.6669106629933466E-1
16 37 -3.1678369178454586
16 43 -2.0704635640071443
16 44 -3.1810672713615853
16 45 -8.949383490550147
16 46 1.5734103093701557
16 47 -6.294142966315202
16 48 3.862576952199013E-1
16 84 1.405543985984321
16 109 -2.0146268311478575
16 110 7.987724028631928E-1
17 14 4.219849199898103E-1
17 15 -6.018730930966328E-1
17 16 -1.0430387907187133E-1
17 17 3.958815756312828E1
17 18 -8.686591148450793E-1
17 19 -1.1098667639787918E1
17 28 -2.6947290013438064E1
17 29 4.9404621643431657E-1
17 30 1.1521346175270274E1
17 31 -5.897811406039953E-1
17 38 -7.1879801704178
17 39 1.0769278106348705
17 46 1.8022361495664269E-1
17 47 1.87058606692392E-1
17 48 -9.544222064558179E-1
17 60 2.6641309533448865E-1
17 84 -2.0292263291204966
17 109 -4.586781714996847
17 110 -1.6331304725375526E-1
17 709 4.7092411485677055E-1
17 710 -3.214572633979228E-1
17 711 -1.3431610521865986E-1
17 714 3.267157489957924E-1
17 715 5.741595462502014E-1
17 716 -1.8566688704421502E-1
17 729 -4.3732403251284524E-1
17 744 2.4222075060200116E-1
17 756 -3.229172143319463E-1
17 757 1.0108356301234165
17 758 1.7296605832460013E-1
18 14 -2.789564264054029E-1
18 15 -8.798618890073677E-1
18 16 1.2519923468739265
18 17 -8.686591148450793E-1
18 18 3.770540713153838E1
18 19 1.6444189648068923
18 28 4.523795497665003E-1
18 29 -2.301827505734014E1
18 30 -1.2786229602348012
18 31 1.4507191657824117
18 38 7.227611439664142E-1
18 39 -8.267489734601748
18 46 -4.078474058484547
18 47 -2.2453234345504223
18 48 -2.5508957379411266
18 60 -5.793644739362565E-1
18 84 7.010569482921704E-1
18 109 -9.544222064558184E-1
18 110 -3.467864547690751E-2
18 709 -5.922905967559403E-1
18 710 -3.915401674782108E-1
18 711 1.208356695307795
18 714 3.8665954624999604E-1
18 715 -5.989375432112263E-1
18 716 -1.861285313288032
18 729 -4.693573952243524E-2
18 744 1.3253496757270562
18 756 1.0108356301234163
18 757 6.29347890743561E-1
18 758 3.672841035692781E-2
19 14 -3.9472054569776105E-1
19 15 1.2519923468739251
19 16 1.096993951877024
19 17 -1.1098667639787918E1
19 18 1.6444189648068923
19 19 7.489973096429625E1
19 28 1.047967950860107E1
19 29 -1.2786229602348025
19 30 -5.420873423228716E1
19 31 -4.693573952243463E-2
19 38 7.630540839068555E-1
19 39 1.3253496757270564
19 46 -2.2453234345504214
19 47 -3.947022718628386
19 48 -3.467864547690743E-2
19 60 9.225930081727779E-2
19 84 7.078919400567305E-1
19 109 -1.633130472537562E-1
19 110 -4.5833753271676425
19 709 1.473505614183647E-1
19 710 1.2083566953077958
19 711 1.644076111773111
19 714 -7.065002203854603E-1
19 715 -1.861285313288032
19 716 -7.777765549231476E-2
19 729 -2.5773789305218537
19 744 -1.5028474246081323E1
19 756 1.7296605832460016E-1
19 757 3.6728410356927726E-2
19 758 2.781962082232267
20 1 -1.1523597794283605E1
20 2 -2.1290582431484433
20 9 -4.800045855747248E1
20 10 -1.8338575571177195E1
20 20 6.230711764830157E1
20 21 2.0098186796907623E1
20 22 1.0113129828818817
20 23 1.0776648147528853E-1
20 24 4.8075133477837584E-1
20 32 5.083846956816827E-1
20 33 4.8871639565790165E-1
20 34 5.126358218747542E-13
20 121 -1.7254692099224853
20 122 1.5650437341505963E-1
20 123 1.137269213282675E-1
20 124 -3.269155606056472E-1
20 125 -4.640899876239436E-1
20 126 -4.590116624397265E-1
20 127 -5.976606992004787E-1
20 128 -1.2900606873250475
20 129 9.718352248485673E-1
20 130 -1.5195890896664122E-2
20 131 3.726294605119107E-1
20 132 1.8720369146287004
20 148 -3.085035002411185
20 149 -5.33840363909865E-1
20 150 -5.676339089091066E-13
21 1 -3.0963201479005877
21 2 -2.7166503145735795E1
21 9 -1.7296908904521153E1
21 10 -1.0048402534581254E2
21 20 2.0098186796907623E1
21 21 1.3037951227095706E2
21 22 6.295608585861693E-1
21 23 5.835760000170089E-1
21 24 1.854387344308842
21 32 5.091156936445253E-13
21 33 3.9901113285342634E-14
21 34 2.5922716101675163
21 121 -5.55915935807598E-1
21 122 1.2465787216647828
21 123 -5.082418768411995
21 124 -2.0425160000616636
21 125 -7.682736587240613E-2
21 126 -1.4246613961885228
21 127 -3.451980714268588E-1
21 128 -4.153589207833687
21 129 2.9822469860801804E-1
21 130 3.561653490467741E-1
21 131 2.0954784425733477
21 132 5.434446533355311
21 148 -5.675899595487434E-13
21 149 -4.3438383994205195E-14
21 150 -3.843504336619575
22 1 -1.7632279022967963
22 2 3.048327322442368E-2
22 3 -7.824235105994361
22 4 -3.7384642314296446E-1
22 5 -1.9249106690607989
22 9 -8.76847554932385E-1
22 10 -8.107734006842677E-1
22 11 -4.028547277922661E1
22 12 -1.0126148204662309
22 13 -1.8291089370411704E1
22 20 1.0113129828818817
22 21 6.295608585861693E-1
22 22 5.242497924013104E1
22 23 1.8828943637987545
22 24 1.9701206368543165E1
22 25 1.0456468943107593
22 26 1.2846073055837642E-1
22 27 6.655229398030361E-1
22 32 -4.284547615848861
22 33 -7.814199007679548E-1
22 34 -8.030628611377168E-13
22 35 5.523918409753401E-1
22 36 7.453324136587298E-1
22 37 7.762629780126356E-13
22 124 2.1794370707043176E-1
22 128 -7.478498855194526E-1
22 132 -5.890018518968941E-2
23 1 3.4294370706915905E-1
23 2 1.3616773333744436
23 3 -6.238464231404203E-1
23 4 -7.578857816281337
23 5 -1.9034759922313662
23 9 -6.228498855207146E-1
23 10 -1.556202666713888
23 11 -9.292814871337531E-1
23 12 -3.28262715893984E1
23 13 -2.3763296240321816
23 20 1.0776648147528853E-1
23 21 5.835760000170089E-1
23 22 1.8828943637987545
23 23 4.4646856703219015E1
23 24 3.0749795243449407
23 25 -1.2153926943908899E-1
23 26 -1.5262865414930304E-1
23 27 8.157754252410434E-1
23 32 -7.814199007679556E-1
23 33 -2.536923324531968
23 34 -3.1025518823580094E-14
23 35 7.453324136587312E-1
23 36 1.006048462048867
23 37 3.034124480051885E-14
23 124 -1.8659960356186867
23 128 -9.607704673260291E-1
23 132 2.685427220378509E-1
24 1 -7.13564345815356E-1
24 2 -5.503063982390806
24 3 -2.817767811909029
24 4 -1.9034759922313649
24 5 -1.7673890215185377E1
24 9 -2.899400673561693E-1
24 10 -5.250337206495045E-1
24 11 -1.7249422703755684E1
24 12 -2.3763296240321803
24 13 -7.421242608806816E1
24 20 4.8075133477837584E-1
24 21 1.854387344308842
24 22 1.9701206368543165E1
24 23 3.0749795243449407
24 24 9.617529463035781E1
24 25 8.887372255147185E-1
24 26 8.157754252410419E-1
24 27 1.5037839235816346
24 32 -8.013782528876085E-13
24 33 -2.886507547308276E-14
24 34 -4.446263407175037
24 35 7.789022380987573E-13
24 36 2.7527554469017736E-14
24 37 2.827211515220601
24 124 1.3616773333744445
24 128 -1.5562026667138866
24 132 5.835760000170067E-1
25 3 -1.7214514808025683
25 4 2.8038481735722287E-1
25 5 -4.441223628427238E-2
25 6 -1.5333134004948226
25 7 -1.942310216981183E-1
25 8 1.6712243821152384E-1
25 11 -1.485364519235321
25 12 -1.0393595129496065
25 13 -1.0334268319909903
25 14 -2.312935426201456E1
25 15 -6.877471950327771E-1
25 16 -1.1452153457214857E1
25 22 1.0456468943107593
25 23 -1.2153926943908899E-1
25 24 8.887372255147185E-1
25 25 3.225633387383514E1
25 26 6.224200085210182E-1
25 27 1.1739699425092796E1
25 28 -5.728524074496845E-1
25 29 1.140072173241351
25 30 -2.655665633289266E-1
25 35 -4.85964469814894
25 36 -1.488455030156563E-15
25 37 9.853555868635186E-15
26 3 4.678848173553146E-1
26 4 -1.9054844480873354
26 5 1.4276069941735232
26 6 -5.067310216949374E-1
26 7 -2.19991144617298
26 8 -1.7845087427169042
26 11 -8.935261796177439E-1
26 12 -1.2337137410852097
26 13 -1.6315508504842502
26 14 -6.252471950334237E-1
26 15 -1.734097082150292E1
26 16 -1.2236631378623841
26 22 1.2846073055837642E-1
26 23 -1.5262865414930304E-1
26 24 8.157754252410419E-1
26 25 6.224200085210182E-1
26 26 2.6004916309811485E1
26 27 1.3766210300977406
26 28 8.067388399113977E-1
26 29 -1.2283493195541555
26 30 1.0197192815512328
26 35 -1.951595054358139E-15
26 36 -1.9438578792595722
26 37 -5.56728852973138E-16
27 3 -8.628646172279697E-1
27 4 1.4276069941735223
27 5 -5.718651864356811
27 6 -6.513299427327914E-1
27 7 -1.7845087427169042
27 8 -5.202741940043479
27 11 -5.125934986628733E-1
27 12 -1.6315508504842495
27 13 -7.768795029530408E-1
27 14 -1.041048679055886E1
27 15 -1.223663137862384
27 16 -3.778430297806127E1
27 22 6.655229398030361E-1
27 23 8.157754252410434E-1
27 24 1.5037839235816346
27 25 1.1739699425092796E1
27 26 1.3766210300977406
27 27 4.950080241472657E1
27 28 3.2052484286651944E-2
27 29 1.0197192815512313
27 30 4.218478263659633E-1
27 35 1.292038371161872E-14
27 36 -9.98998249220155E-16
27 37 -1.94385787925956
28 6 -5.523110720269887
28 7 1.553848173584951E-1
28 8 -1.6813169981814695
28 14 -1.8485670559329803
28 15 2.427657887001076E-1
28 16 1.9800535353333343E-1
28 17 -2.6947290013438064E1
28 18 4.523795497665003E-1
28 19 1.047967950860107E1
28 25 -5.728524074496845E-1
28 26 8.067388399113977E-1
28 27 3.2052484286651944E-2
28 28 4.3691402342469786E1
28 29 -1.4255021775021075
28 30 -9.732631710783988
28 35 1.7603090360945386
28 36 -1.7614187506101255
28 37 1.6563302204889314
28 48 -1.2943389862032142
28 109 -2.330305365923359
28 110 -2.9975038818838673
28 696 -8.305630923698084E-1
28 697 -2.9262001900353224E-1
28 698 -5.75477774349783E-2
28 714 -2.5834374788297345
28 715 1.0168737635984346E-1
28 716 1.8076606440752785E-1
28 735 -5.923358783132891
28 736 1.8581889040434563
28 737 3.7023247013477407
28 756 1.10777353878208
28 757 1.1567346571791788
28 758 -1.7801579643809529
29 6 4.0538481735595056E-1
29 7 -4.989832283727362
29 8 1.427606994173525
29 14 4.0943245536509554E-1
29 15 -4.468944603031826
29 16 -2.863025413451335
29 17 4.9404621643431657E-1
29 18 -2.301827505734014E1
29 19 -1.2786229602348025
29 25 1.140072173241351
29 26 -1.2283493195541555
29 27 1.0197192815512313
29 28 -1.4255021775021075
29 29 4.3116476810677895E1
29 30 2.863676844515341
29 35 -1.761418750610125
29 36 1.2160253061014907
29 37 2.0090242967969925
29 48 -9.443897439024884E-1
29 109 -1.2943389862032142
29 110 -1.6807888295556124
29 696 -6.676200190013027E-1
29 697 -1.4395396911884344
29 698 -1.849102095955317
29 714 -3.149792903025991E-1
29 715 -5.819992001601602
29 716 4.4109622863341946E-1
29 735 1.8581889040434558
29 736 -3.5061292397610155
29 737 -2.017819426526711
29 756 1.1567346571791783
29 757 1.082949823327633
29 758 1.9282350800532697
30 6 -2.5741741410382675
30 7 1.4276069941735252
30 8 -1.271221004962958E1
30 14 7.188386868614716E-1
30 15 -2.8630254134513358
30 16 -2.512533343920568
30 17 1.1521346175270274E1
30 18 -1.2786229602348012
30 19 -5.420873423228716E1
30 25 -2.655665633289266E-1
30 26 1.0197192815512328
30 27 4.218478263659633E-1
30 28 -9.732631710783988
30 29 2.863676844515341
30 30 7.643516476515626E1
30 35 1.6563302204889314
30 36 2.0090242967969916
30 37 3.343310144733028
30 48 -1.6807888295556128
30 109 -2.9975038818838673
30 110 -1.3937335135993019
30 696 -8.015953964886058E-1
30 697 -1.8491020959553164
30 698 -3.2093106949738317
30 714 5.527898739361887E-1
30 715 4.410962286334179E-1
30 716 -2.231269646485246
30 735 3.7023247013477407
30 736 -2.0178194265267115
30 737 -5.7443824660891405
30 756 -1.780157964380952
30 757 1.9282350800532697
30 758 1.811851210729579
31 17 -5.897811406039953E-1
31 18 1.4507191657824117
31 19 -4.693573952243463E-2
31 31 3.210978982072091E1
31 38 4.9577029022447927E-1
31 39 -9.229231493322995
31 46 -4.096593573571174
31 47 2.1862319583520167
31 48 -3.4218209314644312
31 57 4.05384817362644E-1
31 58 -4.989832283414494
31 59 -1.4276069941970964
31 60 -1.4772192258764234
31 61 1.0714513493233977
31 62 -5.792676858619951
31 63 7.19353207884518E-1
31 84 1.019192341160814
31 94 -1.689026900136682
31 95 1.8309807368609237
31 96 -2.1585680162718828
31 109 -1.6190476934146958
31 110 1.7704153552133004
31 719 6.0791083461538775E-2
31 720 -5.220887493741309
31 721 2.7901170883063866
31 726 -9.412743703302471E-1
31 727 -1.4566513704345796
31 728 -7.020834514988095E-1
31 729 -1.6089882472010366
31 744 -1.6132521562253466
31 747 1.2712418045222713
31 748 -9.225479564709359E-1
31 749 1.378502647831495
31 756 1.9925176443068988
31 757 -2.6124776232437824E-1
31 758 -1.2871856526711098
32 1 -2.89868001148317
32 2 -2.2107717948520746
32 3 2.0225717751241742E-1
32 4 -5.756743419206654E-1
32 5 -1.0948944650614774
32 9 2.4384642428604578E-1
32 10 1.5874440224641688
32 11 -9.078736331864363
32 12 8.284696077471319E-1
32 13 1.1840520426193122
32 20 5.083846956816827E-1
32 21 5.091156936445253E-13
32 22 -4.284547615848861
32 23 -7.814199007679556E-1
32 24 -8.013782528876085E-13
32 32 3.811451720693338E1
32 33 1.6156192036928885
32 34 3.0673749843267637
32 35 -7.625051555494991
32 36 -2.517167346095232
32 37 -1.5168461152145936
32 43 1.39962143820912
32 44 -1.6717404702692948
32 45 3.0330487106080177
32 48 1.9255024392175015
32 77 -1.0481608874758653E1
32 78 1.7324099235785497
32 79 -3.3689098765092296E-1
32 109 4.304217290245132
32 110 -7.241960019262647E-1
32 124 3.584049659137931E-1
32 128 1.4748720052300641
32 132 4.887163956579009E-1
32 148 -9.373815290099987E-1
32 149 -2.825155194640503E-1
32 150 -7.791711036399675E-2
32 195 -2.4494049047736577
32 196 -1.8191357605604854
32 197 5.543583352044961E-1
32 221 -7.017433409634086
32 222 -7.763412019601457E-1
32 223 -3.464761620153137
33 1 3.5840496591379256E-1
33 2 9.181654267794855E-1
33 3 -5.756743419206656E-1
33 4 8.100398765241889E-1
33 5 -1.058774137749092
33 9 1.4748720052300635
33 10 -1.8067880570688313
33 11 8.28469607747129E-1
33 12 -7.036297009166599
33 13 3.3042926567153363E-1
33 20 4.8871639565790165E-1
33 21 3.9901113285342634E-14
33 22 -7.814199007679548E-1
33 23 -2.536923324531968
33 24 -2.886507547308276E-14
33 32 1.6156192036928885
33 33 3.4295417631510205E1
33 34 3.8635344257778437
33 35 -2.5171673460952304
33 36 -1.1657193787212439E1
33 37 -3.7510955749681347
33 43 -1.6717404702692962
33 44 2.938564692479436
33 45 1.1832503403715027
33 48 1.8807896814097744
33 77 1.7324099235785486
33 78 -4.044000040204572
33 79 1.732644346522661E-1
33 109 1.9255024392175033
33 110 3.1302779171395603
33 124 -1.7856583732270659
33 128 3.8790186798691506E-2
33 132 9.324513174704816E-1
33 148 -2.8251551946405035E-1
33 149 -5.306533528820038
33 150 1.0433580166875454
33 195 -1.8191357605604848
33 196 -8.282548970037567E-1
33 197 -1.0671182304126892E-2
33 221 -7.763412019601446E-1
33 222 -7.7011924260263385
33 223 -4.014950874989563
34 1 -1.3187221866601857
34 2 -3.4706056999792763
34 3 -2.0478393376884274E-1
34 4 -5.149238542544967E-1
34 5 2.7422242928499383
34 9 1.5874440224641664
34 10 7.858017430778035E-1
34 11 1.1840520426193142
34 12 3.3042926567153624E-1
34 13 -7.170612435185061
34 20 5.126358218747542E-13
34 21 2.5922716101675163
34 22 -8.030628611377168E-13
34 23 -3.1025518823580094E-14
34 24 -4.446263407175037
34 32 3.0673749843267637
34 33 3.8635344257778437
34 34 3.607913150861804E1
34 35 -1.5465742275863203
34 36 -2.7204551343945282
34 37 -9.802384720132022
34 43 3.033048710608016
34 44 1.1832503403715011
34 45 9.864562177659685E-1
34 48 3.13027791713956
34 77 -1.2682272366730554
34 78 6.555516774577075E-1
34 79 -4.052166728925779
34 109 -7.241960019262645E-1
34 110 1.9911988644876568
34 124 4.4327829471678243E-1
34 128 -1.8067880570688304
34 132 3.814011717697185E-14
34 148 -3.669139263450028E-2
34 149 1.722049038750928E-2
34 150 -1.3468455981095495
34 195 -3.079631606156624E-1
34 196 -5.664244908150273E-1
34 197 2.133359814247659E-1
34 221 -3.464761620153137
34 222 -4.014950874989564
34 223 -1.5101541628884968E1
35 3 -3.6131943420589434
35 4 5.490885839015036E-1
35 5 -2.444510491465686
35 6 -3.8217075892386094
35 7 -9.775214185707364E-1
35 8 -2.6433090503277943
35 11 1.8221134452002028
35 12 1.3175917298854511
35 13 1.2726754136702474
35 14 -3.9721464817641543
35 15 -1.3961402785096837
35 16 2.434147864648678
35 22 5.523918409753401E-1
35 23 7.453324136587312E-1
35 24 7.789022380987573E-13
35 25 -4.85964469814894
35 26 -1.951595054358139E-15
35 27 1.292038371161872E-14
35 28 1.7603090360945386
35 29 -1.761418750610125
35 30 1.6563302204889314
35 32 -7.625051555494991
35 33 -2.5171673460952304
35 34 -1.5465742275863203
35 35 3.1862016427240242E1
35 36 2.761836793758176
35 37 5.239863877369788
35 43 4.273383796417207
35 44 1.448222620421166
35 45 1.4963058394128503
35 48 -6.041265466869755E-1
35 74 -3.3402495130310217
35 75 1.5247820886538335
35 76 2.4424220873965985E-1
35 77 -3.1986882711652713
35 78 -1.8880697716288586
35 79 -1.4379624109683597
35 109 -8.89412126119535
35 110 -4.416151623550683
35 735 -9.454108338302536E-1
35 736 7.975898818227496E-1
35 737 1.4494237956789613E-1
36 3 5.49088583901504E-1
36 4 -2.1407417807741527
36 5 1.0098778938601771
36 6 -9.775214185707362E-1
36 7 -2.13172054182768
36 8 -1.218509114488531
36 11 1.3175917298854536
36 12 1.2434331846252795
36 13 5.371738880726832E-2
36 14 -1.3961402785096837
36 15 -3.9406316556208534
36 16 -4.6669106629933466E-1
36 22 7.453324136587298E-1
36 23 1.006048462048867
36 24 2.7527554469017736E-14
36 25 -1.488455030156563E-15
36 26 -1.9438578792595722
36 27 -9.98998249220155E-16
36 28 -1.7614187506101255
36 29 1.2160253061014907
36 30 2.0090242967969916
36 32 -2.517167346095232
36 33 -1.1657193787212439E1
36 34 -2.7204551343945282
36 35 2.761836793758176
36 36 3.1404691703036193E1
36 37 3.137964425541119
36 43 1.4482226204211668
36 44 2.9361903472422513
36 45 -1.2564093362104245
36 48 -8.344863448417835
36 74 1.524782088653834
36 75 -5.317843723712236E-1
36 76 3.0102587472856923E-1
36 77 -1.888069771628858
36 78 -1.773386253004891
36 79 -3.6834829086029286E-1
36 109 -6.041265466869772E-1
36 110 5.045415958592688E-1
36 735 7.975898818227498E-1
36 736 -5.34220928456544
36 737 -9.857385333403094E-1
37 3 -1.5490936885309714
37 4 4.9114367162236877E-1
37 5 -3.983694171977076
37 6 -1.6707693175111442
37 7 -6.314925760907782E-1
37 8 -3.3591152696926567
37 11 1.272675413670249
37 12 5.371738880726524E-2
37 13 2.279643177487937
37 14 2.4341478646486814
37 15 -4.666910662993348E-1
37 16 -3.1678369178454586
37 22 7.762629780126356E-13
37 23 3.034124480051885E-14
37 24 2.827211515220601
37 25 9.853555868635186E-15
37 26 -5.56728852973138E-16
37 27 -1.94385787925956
37 28 1.6563302204889314
37 29 2.0090242967969925
37 30 3.343310144733028
37 32 -1.5168461152145936
37 33 -3.7510955749681347
37 34 -9.802384720132022
37 35 5.239863877369788
37 36 3.137964425541119
37 37 3.4426660403204195E1
37 43 1.4963058394128539
37 44 -1.2564093362104236
37 45 -6.096279308975145E-1
37 48 5.045415958592683E-1
37 74 -7.580256364487203E-1
37 75 7.446497769044211E-1
37 76 9.554473399226271E-2
37 77 -2.2698584047179318
37 78 -9.503677519992224E-1
37 79 -1.6296038877986145
37 109 -4.416151623550686
37 110 -1.737759678711074E1
37 735 8.14215703827562E-2
37 736 1.1501515003642948E-1
37 737 -1.0986524099243884
38 17 -7.1879801704178
38 18 7.227611439664142E-1
38 19 7.630540839068555E-1
38 31 4.9577029022447927E-1
38 38 2.3053042949914975E1
38 39 -2.0501910714717537
38 48 -1.2862473346421548
38 60 -8.347956227719182
38 109 3.055720802393649
38 110 3.434867643242413E-1
38 709 -2.066642230839622
38 710 2.144176906679957E-1
38 711 2.4836557922155694E-1
38 726 -2.209267518459018
38 727 5.412151993937896E-1
38 728 -6.430156992392535E-1
38 729 -2.1636779009590494
38 744 1.81557654971759
38 756 -6.296917604873001
38 757 1.36227408186123
38 758 -3.637893769719412E-1
39 17 1.0769278106348705
39 18 -8.267489734601748
39 19 1.3253496757270564
39 31 -9.229231493322995
39 38 -2.0501910714717537
39 39 2.6093660576829564E1
39 48 2.9921598829303577
39 60 8.707702902279104E-1
39 109 -1.2862473346421546
39 110 7.293756335529007E-2
39 709 -1.6058230933543538E-1
39 710 -3.609071347995252
39 711 -2.2343873807288137
39 726 1.870485327253344E-1
39 727 -3.58677675771596
39 728 2.158662684694797
39 729 -1.6132521562253486
39 744 3.679383269173393E-1
39 756 1.362274081861229
39 757 -4.393251126123967
39 758 -7.724871374032005E-2
40 9 -1.136215470371853
40 10 1.1734528344309298
40 11 -2.1255457269053415
40 12 8.780515884471068E-1
40 13 1.7790967194652927
40 40 1.894346800441692E1
40 41 -9.695984456568838E-1
40 42 2.9624270275978204E-1
40 43 -1.4977202128847669
40 44 1.8744563055997068
40 45 5.488011080096205E-2
40 64 -2.391848618766065
40 65 9.605516578934941E-1
40 66 -1.9704581597099118
40 128 -7.103412510418483E-1
40 139 -1.4074392077279727
40 140 -8.239491562069311E-1
40 141 -1.3836946064866538
40 154 -1.0956864313830847
40 155 -1.2091706990346416
40 156 5.048039873959979E-2
40 221 -9.289012336377835
40 222 -2.9338311635409327E-15
40 223 -1.0252417121292201E-15
41 9 -3.356913348044415E-1
41 10 1.8140439385854554
41 11 4.2390013507961755E-1
41 12 -2.416777874317153
41 13 -2.219886104827931
41 40 -9.695984456568838E-1
41 41 1.9614643201114767E1
41 42 9.091530857400343E-2
41 43 1.1452896389324798
41 44 -3.8345973500763493
41 45 2.8754405670806005E-2
41 64 5.39703111260263E-1
41 65 -2.290043229256504
41 66 2.1198423749253035
41 128 -1.1542361404606398
41 139 -4.694324057771109E-1
41 140 -1.2216457108857965
41 141 -1.8008522073725695
41 154 -3.3417069903392005E-1
41 155 -4.981737961567186
41 156 -3.2817715555067684E-2
41 221 -4.131450840870842E-15
41 222 -3.715604934551136
41 223 -9.701541090684137E-16
42 9 3.976223626521712E-1
42 10 -3.918719028923123
42 11 1.006780194424024
42 12 -2.21988610482793
42 13 -4.575083180060123
42 40 2.9624270275978204E-1
42 41 9.091530857400343E-2
42 42 2.0890216980474015E1
42 43 5.488011076867054E-2
42 44 2.8754405670805505E-2
42 45 3.632564509199968E-1
42 64 -1.1981416346872817
42 65 2.1198423749253044
42 66 -4.638339989755467
42 128 1.8140439385854545
42 139 -6.078641346756023E-1
42 140 -1.8008522073725683
42 141 -4.117999170276829
42 154 5.048039875823794E-2
42 155 -3.281771555506874E-2
42 156 -2.87727127827332E-1
42 221 -1.511821578227251E-15
42 222 -1.6523239891879234E-15
42 223 -3.7156049345511364
43 11 -1.0572749904113069E1
43 12 2.107304971941754
43 13 -3.5154854850477766
43 14 -7.861165349744134
43 15 -2.300118835053353
43 16 -2.0704635640071443
43 32 1.39962143820912
43 33 -1.6717404702692962
43 34 3.033048710608016
43 35 4.273383796417207
43 36 1.4482226204211668
43 37 1.4963058394128539
43 40 -1.4977202128847669
43 41 1.1452896389324798
43 42 5.488011076867054E-2
43 43 4.243955023328926E1
43 44 -8.196468406424486E-2
43 45 9.996097679724496E-1
43 46 -7.822503419617137E-1
43 47 1.374002436471606E-1
43 48 2.8311598148820316
43 61 -6.573088090996852
43 62 -1.7384523372985716
43 63 1.5654260787709477
43 64 -9.204415530220526
43 65 1.8134809228807753
43 66 2.8797625858903215
43 84 -6.820407812062299E-1
43 88 2.178475937492115E-1
43 89 -1.7606332661970072
43 90 -3.0589884915402568
43 94 3.4494683018391137
43 95 1.5404653200210952
43 96 -1.7501701133790026
43 109 -1.0778835329821883E1
43 110 1.1861930253818506E-1
43 221 -4.609856164516447
43 222 -2.5507633542351167
43 223 1.1005501436557709E-1
44 11 2.3842970254613554
44 12 -1.0213653317387829E1
44 13 2.5144885038444293
44 14 -2.685535501743937
44 15 -9.012857934777388
44 16 -3.1810672713615853
44 32 -1.6717404702692948
44 33 2.938564692479436
44 34 1.1832503403715011
44 35 1.448222620421166
44 36 2.9361903472422513
44 37 -1.2564093362104236
44 40 1.8744563055997068
44 41 -3.8345973500763493
44 42 2.8754405670805505E-2
44 43 -8.196468406424486E-2
44 44 4.471287746269509E1
44 45 2.1101822075796484E-1
44 46 -2.820538046865252
44 47 4.90423669765514E-2
44 48 -6.979987369400121
44 61 -2.082202337275214
44 62 -8.084471597594968
44 63 3.023994419130049
44 64 2.1198222026963034
44 65 -9.787038165978165
44 66 -2.641593634626013
44 84 -1.3655836752968427
44 88 -1.7606332661970068
44 89 2.3736627285543963
44 90 -1.1796187677544876
44 94 1.5404653200210934
44 95 2.619003550275773
44 96 1.2252396931153475
44 109 2.8311598148820307
44 110 2.1194858792251137E-2
44 221 -2.5507633542351176
44 222 -4.847154999166876
44 223 1.7062012936090998E-3
45 11 -4.320336334849349
45 12 2.5144885038444285
45 13 -1.3444164286184238E1
45 14 -2.821713564037255
45 15 -3.181067271361586
45 16 -8.949383490550147
45 32 3.0330487106080177
45 33 1.1832503403715027
45 34 9.864562177659685E-1
45 35 1.4963058394128503
45 36 -1.2564093362104245
45 37 -6.096279308975145E-1
45 40 5.488011080096205E-2
45 41 2.8754405670806005E-2
45 42 3.632564509199968E-1
45 43 9.996097679724496E-1
45 44 2.1101822075796484E-1
45 45 4.541882186035722E1
45 46 4.904236697655301E-2
45 47 1.1578706866515396
45 48 2.1194858792248972E-2
45 61 2.316676078768765
45 62 3.023994419130049
45 63 -8.383263893928866
45 64 3.684613435726208
45 65 -2.641593634626014
45 66 -1.3077796099952419E1
45 84 1.3740024361284686E-1
45 88 -3.0589884915402585
45 89 -1.1796187677544852
45 90 4.8153913762193856E-1
45 94 -1.7501701133790002
45 95 1.2252396931153477
45 96 -9.966720496235331E-1
45 109 1.1861930253818491E-1
45 110 -2.8059209810279087
45 221 1.1005501436557913E-1
45 222 1.706201293607934E-3
45 223 -1.4111562115203824E-1
46 14 -5.1552151545395775E-2
46 15 -2.021588801612175
46 16 1.5734103093701557
46 17 1.8022361495664269E-1
46 18 -4.078474058484547
46 19 -2.2453234345504214
46 31 -4.096593573571174
46 43 -7.822503419617137E-1
46 44 -2.820538046865252
46 45 4.904236697655301E-2
46 46 1.7805579259042325E1
46 47 1.9089929396339028E-1
46 48 -2.0964984673078813
46 60 5.191923411581726E-1
46 61 -3.596166141959081E-1
46 62 -2.691886311201291
46 63 -1.754260494111695
46 84 4.9400315158819863E-1
46 109 3.616081113277556E-15
46 110 3.668306804339567E-16
46 729 2.1862319583520176
47 14 6.153605110414327E-1
47 15 1.5734103093701586
47 16 -6.294142966315202
47 17 1.87058606692392E-1
47 18 -2.2453234345504223
47 19 -3.947022718628386
47 31 2.1862319583520167
47 43 1.374002436471606E-1
47 44 4.90423669765514E-2
47 45 1.1578706866515396
47 46 1.9089929396339028E-1
47 47 2.225832636177388E1
47 48 9.313560564798269E-16
47 60 -4.6998419305216443E-1
47 61 -1.2699762953196978
47 62 -1.7542604941116953
47 63 -6.938035779566265
47 84 8.001411269908798E-1
47 109 -3.543715663586459E-15
47 110 -2.0964984673078817
47 729 -4.140497116607685
48 14 1.1555179970703229
48 15 1.438377348932036
48 16 3.862576952199013E-1
48 17 -9.544222064558179E-1
48 18 -2.5508957379411266
48 19 -3.467864547690743E-2
48 28 -1.2943389862032142
48 29 -9.443897439024884E-1
48 30 -1.6807888295556128
48 31 -3.4218209314644312
48 32 1.9255024392175015
48 33 1.8807896814097744
48 34 3.13027791713956
48 35 -6.041265466869755E-1
48 36 -8.344863448417835
48 37 5.045415958592683E-1
48 38 -1.2862473346421548
48 39 2.9921598829303577
48 43 2.8311598148820316
48 44 -6.979987369400121
48 45 2.1194858792248972E-2
48 46 -2.0964984673078813
48 47 9.313560564798269E-16
48 48 7.437557591560012E1
48 53 1.6912077609850233
48 60 -1.619047693414696
48 61 9.554237791525129E-1
48 62 2.519691334325914
48 63 -5.722306528203529E-1
48 73 1.929755392323936
48 74 -4.273193058502085E-1
48 75 -7.058905240313148
48 76 1.1801113857051637
48 77 -1.5571333951349553
48 78 -7.244741770537E-1
48 79 2.481026442749357
48 84 2.0696251620481343E-15
48 88 1.687139540424257
48 89 1.82885910291845
48 90 -3.126893204227315
48 91 -4.401705416817563E-1
48 92 -7.174733439900929
48 93 -1.101315751638143
48 94 -5.706095967800602E-1
48 95 -8.293879779981166
48 96 -2.707800038782592E-1
48 97 -1.557133395134955
48 98 -7.244741770537007E-1
48 99 -2.4810264427493562
48 103 -1.3008046310487935
48 104 4.600239398312296
48 105 -3.0999995588969098E-2
48 106 -3.3101217809121994
48 107 -7.762906675125393
48 108 1.4137996329210978E-16
48 109 3.8959319241356285
48 110 -1.895184600976626E-1
48 111 -4.140145689961117
48 221 -6.55531362180756E-1
48 222 -5.376630173083807
48 223 -3.9422201718575245E-4
48 702 1.948576024907526
48 703 -2.8133810357566067
48 729 1.7704153552133015
48 730 2.0038217991896534
48 731 2.809977218103058
48 735 -9.30319840607915E-1
48 736 -2.911532670136701
48 737 -3.7960765551605835
48 744 7.293756335528948E-2
48 747 -8.711590164753054E-1
48 748 -2.6640040013430593
48 749 3.727308008309787
48 756 -2.090524062908551
48 757 -2.2086514095351315E1
48 758 1.369665495263045E-2
48 759 3.0659363771388817
48 760 3.391035673895853E-4
49 49 2.9074679202380324E1
49 50 -1.3496076108838597
49 51 -1.9211581288179687
49 52 -1.429668685320733E-1
49 80 -3.8511224599977885
49 81 9.757439788636061E-1
49 82 -3.6585683701028593E-1
49 83 -3.118744736887487
49 103 -6.764801872024029
49 104 -6.84637869597736E-1
49 105 4.228191388182314
49 358 -9.507860251684871
49 359 2.0801466387218365E-1
49 360 2.0671666653601317E-1
49 365 3.563914917209626E-2
49 381 2.295730286896485
49 382 2.141457450428688
49 383 -2.0695708589550614
49 394 -1.6482027171040987
49 395 -1.971494721028483
49 396 8.32014675473385E-1
49 397 3.957352127235599E-1
49 398 -9.129504885842716E-1
49 411 -3.9882317052362666
49 412 2.4252981824765456
49 413 3.458601924322882E-1
49 427 -1.1054206370336644E-1
49 446 -1.141838135458408
49 447 -1.4584167052170278
49 448 -2.1570770187144053
50 49 -1.3496076108838597
50 50 2.519483958582471E1
50 51 -1.289052786349151
50 52 -1.3568452754184201E-1
50 53 -2.016596413637182
50 74 -7.398159285540739
50 75 1.6669323752709073
50 76 2.0052947372908854
50 80 -3.3413390255183417E-1
50 81 9.238567848252034E-1
50 82 -3.825423588008306E-1
50 83 -8.274424357091897
50 103 -2.6115722172163793
50 104 -3.06746894085954E-2
50 105 -8.941771753351182E-1
50 111 3.131146799508014E-2
50 365 -1.873534966664952
50 397 -1.9211581288179673
50 398 5.031720210738798E-1
50 426 4.564674264449753E-1
50 427 1.5121844378095861
50 702 -1.8839170642465004
50 703 -5.917346347546251E-1
50 759 -3.367235473391788
50 760 9.12739478287627E-1
50 868 2.4210325098285135E-2
50 869 1.1231969523121197
51 49 -1.9211581288179687
51 50 -1.289052786349151
51 51 2.18197011053656E1
51 52 5.079221124028371E-2
51 53 -1.887065181305681
51 74 1.666932375270905
51 75 -2.56303297601023
51 76 -6.316127178878655E-1
51 80 9.238567848252046E-1
51 81 -4.088728696574253
51 82 4.107914373966076E-1
51 83 1.512184437809588
51 103 -3.0674689408594982E-2
51 104 -2.698860252197463
51 105 -3.26016892664402
51 111 -3.278135418383643
51 365 5.021837096343654E-1
51 397 -1.3496076108838615
51 398 1.429668685320734E-1
51 426 -3.8345283476827585E-1
51 427 -2.810292581228391
51 702 -2.016596413637181
51 703 -1.5934680881893204E-1
51 759 3.1311467995079584E-2
51 760 3.3278470613157634
51 868 1.12319695231212
51 869 -3.14397838878208
52 49 -1.429668685320733E-1
52 50 -1.3568452754184201E-1
52 51 5.079221124028371E-2
52 52 2.24253539427061E1
52 53 5.913969231534489E-1
52 74 2.9515758976516207
52 75 -9.353315575290296E-1
52 76 -3.872607328583622
52 80 -1.4844412037708993E-1
52 81 -5.717882125744119E-1
52 82 -2.527542176707676E-1
52 83 -2.8576118253707756
52 103 -8.941771753351193E-1
52 104 -3.2601689266440212
52 105 -7.147718806983371
52 111 3.3278470613157625
52 365 -3.903871087185023
52 397 -5.031720210738803E-1
52 398 1.9279440673501358E-1
52 426 2.4025802971491356E-1
52 427 7.340196276330055E-1
52 702 1.5824398552745755E-1
52 703 1.0500000058401115E-1
52 759 9.127394782876275E-1
52 760 -7.786454939317255
52 868 1.5632515569019398E-1
52 869 5.664048944788428E-1
53 48 1.6912077609850233
53 50 -2.016596413637182
53 51 -1.887065181305681
53 52 5.913969231534489E-1
53 53 3.284301841111218E1
53 74 -6.103362685496752E-1
53 75 -1.0204968284189922E1
53 76 7.527246382237769E-1
53 109 1.948576024907526
53 110 -2.813381035756607
53 111 -7.678623211650538
53 426 -3.8906154587537556E-1
53 702 1.323016353944619
53 703 4.9482066011098563E-1
53 704 -2.95205671742872
53 705 -5.127199153231904
53 706 -2.057833707183921
53 735 1.0047478548169753
53 736 -1.728834017444268
53 737 4.8846527874015744E-1
53 753 -7.124850044882653E-1
53 754 -3.15154908005704E-1
53 755 3.1797835959957186
53 756 -6.109314889231556E-1
53 757 -8.889010425384718E-1
53 758 9.41569247778439E-1
53 759 -6.229466820320446E-1
53 760 -1.3583435410098046
53 868 9.163310054906468E-1
53 869 -3.3939143815577832E-3
53 870 2.3326813358992773
53 871 -6.700086459349162
53 872 1.698594858231811E-1
54 54 1.1709973998974585E1
54 55 1.4541775446383587E-1
54 56 -4.577801941281816
54 57 5.32605225284374E-1
54 58 1.284607305605085E-1
54 59 -4.47801877219438E-1
54 61 -1.7214514804526502
54 62 4.6788481736500276E-1
54 63 8.628646171472258E-1
54 64 -7.824235106260987
54 65 -6.238464231507193E-1
54 66 2.817767811994867
54 88 2.022571772828752E-1
54 89 -5.75674341932587E-1
54 90 2.04783933868188E-1
54 94 -3.613194341887864
54 95 5.490885839128752E-1
54 96 1.5490936884362139
54 136 7.140445270596677E-1
54 137 -9.133112121891604E-2
54 138 -4.0890623294524053E-1
55 54 1.4541775446383587E-1
55 55 1.1110401500025324E1
55 56 -7.067325448399397E-1
55 57 -1.2153926944107488E-1
55 58 -3.578453217827491E-1
55 59 2.7192514184243777E-1
55 61 2.8038481736302845E-1
55 62 -1.9054844477412283
55 63 -1.427606994203086
55 64 -3.738464231491359E-1
55 65 -7.578857816543913
55 66 1.903475992262794
55 88 -5.75674341932587E-1
55 89 8.100398763072326E-1
55 90 5.149238542586904E-1
55 94 5.490885839128752E-1
55 95 -2.1407417805863616
55 96 -4.9114367162636785E-1
55 136 9.616887878305823E-2
55 137 6.2487990321695136E-2
55 138 -6.484177769452848E-2
56 54 -4.577801941281816
56 55 -7.067325448399397E-1
56 56 2.162486398338247E1
56 57 -4.45055265629443E-1
56 58 -2.719251416521568E-1
56 59 1.2985672559417376
56 61 4.4412236235886415E-2
56 62 -1.427606994203086
56 63 -5.7186518635113135
56 64 1.924910669112237
56 65 1.903475992262794
56 66 -1.7673890215820798E1
56 88 1.0948944651608234
56 89 1.0587741377532849
56 90 2.7422242923224003
56 94 2.4445104913709277
56 95 -1.009877893864176
56 96 -3.9836941714930476
56 136 -4.858706549686157E-1
56 137 4.538924445432798E-1
56 138 1.7105807191785587
57 31 4.05384817362644E-1
57 54 5.32605225284374E-1
57 55 -1.2153926944107488E-1
57 56 -4.45055265629443E-1
57 57 1.0648788273704447E1
57 58 2.6401758008454784E-1
57 59 -4.300670743725112
57 60 -5.523110719965827
57 61 -1.5333134007531082
57 62 -5.06731021702019E-1
57 63 6.513299427918025E-1
57 94 -3.8217075894012034
57 95 -9.77521418584399E-1
57 96 1.6707693176249823
57 719 2.7545786168089215E-1
57 720 3.0749920807242592E-2
57 721 -3.992658667360439E-1
57 729 2.5741741409824876
57 747 -5.787196505495737E-1
57 748 9.056393914730586E-1
57 749 2.4871847469132607E-1
58 31 -4.989832283414494
58 54 1.284607305605085E-1
58 55 -3.578453217827491E-1
58 56 -2.719251416521568E-1
58 57 2.6401758008454784E-1
58 58 1.0221819481122592E1
58 59 -2.0479047415300056E-1
58 60 1.5538481736106036E-1
58 61 -1.942310217008325E-1
58 62 -2.199911446440582
58 63 1.784508742741843
58 94 -9.77521418584399E-1
58 95 -2.1317205419729057
58 96 6.314925760980319E-1
58 719 -2.8175007919394296E-1
58 720 -8.697151769035629E-1
58 721 7.337706739834005E-2
58 729 -1.4276069941970941
58 747 9.056393914730579E-1
58 748 3.272052893917021E-1
58 749 -5.850557762359636E-1
59 31 -1.4276069941970964
59 54 -4.47801877219438E-1
59 55 2.7192514184243777E-1
59 56 1.2985672559417376
59 57 -4.300670743725112
59 58 -2.0479047415300056E-1
59 59 1.7670137709418107E1
59 60 1.6813169981600893
59 61 -1.6712243818890482E-1
59 62 1.7845087427418436
59 63 -5.202741940708329
59 94 2.643309050441634
59 95 1.2185091144957862
59 96 -3.3591152700344287
59 719 -5.533532185719884E-1
59 720 -5.136394709994123E-1
59 721 8.410187350452389E-1
59 729 -1.271221004885134E1
59 747 1.1443222291037198
59 748 -1.1289060597305585
59 749 1.4643435591890166
60 17 2.6641309533448865E-1
60 18 -5.793644739362565E-1
60 19 9.225930081727779E-2
60 31 -1.4772192258764234
60 38 -8.347956227719182
60 39 8.707702902279104E-1
60 46 5.191923411581726E-1
60 47 -4.6998419305216443E-1
60 48 -1.619047693414696
60 57 -5.523110719965827
60 58 1.5538481736106036E-1
60 59 1.6813169981600893
60 60 2.7486440206138944E1
60 61 -1.8644397012776492
60 62 5.40201349344779E-1
60 63 -2.582142941569804E-2
60 84 -2.335237847683942
60 94 2.058059909997063
60 95 -1.6890269001366818
60 96 -1.5653886918374007
60 109 -5.723071775416232
60 110 2.7491379969362937
60 719 -2.8341556276374544
60 720 4.3579108346233175E-1
60 721 -1.6074312953750586E-1
60 726 6.838604706948161E-1
60 727 -4.20441037019368E-1
60 728 5.860307603663176E-1
60 729 4.855153323504279E-1
60 744 -1.6428445675927064
60 747 -4.477081783755627
60 748 1.2712418045222715
60 749 -3.528536228701694
60 756 6.10280001290596E-1
60 757 1.9925176443069001
60 758 1.7990578515067623
61 31 1.0714513493233977
61 43 -6.573088090996852
61 44 -2.082202337275214
61 45 2.316676078768765
61 46 -3.596166141959081E-1
61 47 -1.2699762953196978
61 48 9.554237791525129E-1
61 54 -1.7214514804526502
61 55 2.8038481736302845E-1
61 56 4.4412236235886415E-2
61 57 -1.5333134007531082
61 58 -1.942310217008325E-1
61 59 -1.6712243818890482E-1
61 60 -1.8644397012776492
61 61 2.229690049370084E1
61 62 2.5177629306474403
61 63 1.498631053917388E-1
61 64 4.646710093685528E-1
61 65 -1.0345939801797635
61 66 -6.865851064185567E-1
61 84 -3.1355801857747907
61 94 -8.233654113405978
61 95 -1.1543789231346613
61 96 -2.487107499868272
61 109 2.999554695916388E-1
61 110 2.058458967901217
61 729 4.13809514978242E-2
62 31 -5.792676858619951
62 43 -1.7384523372985716
62 44 -8.084471597594968
62 45 3.023994419130049
62 46 -2.691886311201291
62 47 -1.7542604941116953
62 48 2.519691334325914
62 54 4.6788481736500276E-1
62 55 -1.9054844477412283
62 56 -1.427606994203086
62 57 -5.06731021702019E-1
62 58 -2.199911446440582
62 59 1.7845087427418436
62 60 5.40201349344779E-1
62 61 2.5177629306474403
62 62 2.5890792669863455E1
62 63 -2.359573314753681
62 64 -4.8874543354556327E-1
62 65 -1.5431729044311746
62 66 -1.0557549802633276E-1
62 84 -5.929651608289221E-1
62 94 -1.1543789231346606
62 95 -6.192880438160171
62 96 6.913905841587403E-1
62 109 9.554237791525149E-1
62 110 -5.722306528203547E-1
62 729 7.193532078845171E-1
63 31 7.19353207884518E-1
63 43 1.5654260787709477
63 44 3.023994419130049
63 45 -8.383263893928866
63 46 -1.754260494111695
63 47 -6.938035779566265
63 48 -5.722306528203529E-1
63 54 8.628646171472258E-1
63 55 -1.427606994203086
63 56 -5.7186518635113135
63 57 6.513299427918025E-1
63 58 1.784508742741843
63 59 -5.202741940708329
63 60 -2.582142941569804E-2
63 61 1.498631053917388E-1
63 62 -2.359573314753681
63 63 2.8720770473797636E1
63 64 -7.148540124200894E-1
63 65 -1.0557549802633248E-1
63 66 1.7718213229248518
63 84 -2.0601597702988728
63 94 -2.4871074998682734
63 95 6.913905841587373E-1
63 96 -5.1863067277929495
63 109 2.0584589679012186
63 110 1.6865988037180686
63 729 -7.501903949328289E-1
64 40 -2.391848618766065
64 41 5.39703111260263E-1
64 42 -1.1981416346872817
64 43 -9.204415530220526
64 44 2.1198222026963034
64 45 3.684613435726208
64 54 -7.824235106260987
64 55 -3.738464231491359E-1
64 56 1.924910669112237
64 61 4.646710093685528E-1
64 62 -4.8874543354556327E-1
64 63 -7.148540124200894E-1
64 64 3.0926556588862894E1
64 65 -1.732494749198695
64 66 -3.267523185123969
64 88 -1.2253015198236952E1
64 89 3.2485277825834047E-1
64 90 -1.3891996450958444
64 94 2.372087886436192
64 95 1.6448558886653961
64 96 -1.1543331558737164
64 136 -1.7632279019465833
64 137 2.179437070743411E-1
64 138 -3.0483273257002064E-2
64 139 -1.3756469252105152
64 140 -6.619373097393773E-1
64 141 1.2803750732932595E-1
64 221 1.0490737959739935
64 222 -1.590153772321874
64 223 2.0169732942901315
65 40 9.605516578934941E-1
65 41 -2.290043229256504
65 42 2.1198423749253044
65 43 1.8134809228807753
65 44 -9.787038165978165
65 45 -2.641593634626014
65 54 -6.238464231507193E-1
65 55 -7.578857816543913
65 56 1.903475992262794
65 61 -1.0345939801797635
65 62 -1.5431729044311746
65 63 -1.0557549802633248E-1
65 64 -1.732494749198695
65 65 3.263213704537419E1
65 66 1.1662896205128312
65 88 3.248527782583387E-1
65 89 -9.134512031468876
65 90 -3.7680843411295584E-1
65 94 1.6448558886653974
65 95 2.2376052364733074
65 96 -4.8722370434074416E-2
65 136 3.4294370707531047E-1
65 137 -1.8659960352703182
65 138 -1.3616773333988688
65 139 -1.0559602992226619E-1
65 140 -5.3260906781552855
65 141 -9.872437425849233E-1
65 221 -1.5901537723218735
65 222 2.655968579256737
65 223 3.320130254822398E-1
66 40 -1.9704581597099118
66 41 2.1198423749253035
66 42 -4.638339989755467
66 43 2.8797625858903215
66 44 -2.641593634626013
66 45 -1.3077796099952419E1
66 54 2.817767811994867
66 55 1.903475992262794
66 56 -1.7673890215820798E1
66 61 -6.865851064185567E-1
66 62 -1.0557549802633276E-1
66 63 1.7718213229248518
66 64 -3.267523185123969
66 65 1.1662896205128312
66 66 4.36143803554424E1
66 88 -1.3891996450958437
66 89 -3.76808434112958E-1
66 90 -1.127555601502343E1
66 94 -1.1543331558737173
66 95 -4.872237043407277E-2
66 96 5.147111319585564
66 136 7.13564345764095E-1
66 137 -1.3616773333988694
66 138 -5.503063981534917
66 139 4.003121428258451E-2
66 140 -9.872437425849228E-1
66 141 -3.150543831010671E-1
66 221 2.0169732942901306
66 222 3.3201302548224043E-1
66 223 1.9503876872352854
67 67 2.905098580361314E1
67 68 3.761674324238966E-1
67 69 9.132102884175921E-1
67 70 -1.3271370952183907
67 71 -1.9167707150639757
67 72 1.4018166333694304E-1
67 85 -3.16706077456053
67 86 -1.090025658961212E-1
67 87 -3.309805400485244E-2
67 100 -3.8511224599977885
67 101 9.757439788636062E-1
67 102 3.658568370102858E-1
67 103 -6.740232743277859
67 104 -6.78416871811878E-1
67 105 -4.218073643808525
67 357 -8.317907519407886E-1
67 368 -9.49047947284466
67 369 2.1720492152236298E-1
67 370 -2.1003958544826162E-1
67 381 2.275613680949751
67 382 2.1345956118278737
67 383 2.064589104674589
67 401 -1.6371366171487054
67 402 -1.970233241071711
67 428 -3.988231705236264
67 429 2.4252981824765443
67 430 -3.4586019243228877E-1
67 446 -1.1251986162786962
67 447 -1.454586733270598
67 448 2.1550243341953066
68 67 3.761674324238966E-1
68 68 2.7802378914401196E1
68 69 -4.898980356835242E-1
68 70 -1.9167707150639743
68 71 -1.3271370952183907
68 72 5.023806573884972E-1
68 85 -1.0900256589612113E-1
68 86 -8.776173373334192
68 87 3.795020288229145E-1
68 100 9.757439788636056E-1
68 101 -2.3025141744016253E-1
68 102 -3.9696328906382045E-1
68 103 -6.7841687181188E-1
68 104 -4.346380287370627
68 105 -1.2816046094217157
68 357 -3.237681870760756E-1
68 368 2.1720492152236226E-1
68 369 -3.435918556912048
68 370 1.5129238673465958E-1
68 381 2.1345956118278746
68 382 1.851076065371094
68 383 -1.842552931722948
68 401 -1.970233241071711
68 402 -1.6371366171356796
68 428 2.4252981824765447
68 429 -6.805627550560873
68 430 1.7882863672531724E-1
68 446 -1.4545867332705968
68 447 -3.0948300818003185
68 448 3.122783343296695
69 67 9.132102884175921E-1
69 68 -4.898980356835242E-1
69 69 2.3894168230178703E1
69 70 -5.023806573884962E-1
69 71 -1.4018166333694226E-1
69 72 2.0111690594953785E-1
69 85 2.1588754884820488E-1
69 86 -5.621323456971238E-1
69 87 -3.3904185239479374
69 100 -5.757775375078094E-1
69 101 -1.4797768620571955E-1
69 102 -1.8363827824761736E-1
69 103 -4.218073643808525
69 104 -1.281604609421715
69 105 -8.418606886619205
69 357 1.3217065683999374E-1
69 368 7.362415749136553E-1
69 369 -1.5242645289594792E-1
69 370 -3.7397474948842255
69 381 2.0645891046745897
69 382 -1.8425529317229474
69 383 -5.085593689451495E-1
69 401 -1.3914198027575175E-1
69 402 3.688805845858607E-1
69 428 -6.495790320687651E-1
69 429 1.1251097970813646
69 430 -2.9344850605192256
69 446 2.1550243341953057
69 447 3.1227833432966943
69 448 -5.052000179804876
70 67 -1.3271370952183907
70 68 -1.9167707150639743
70 69 -5.023806573884962E-1
70 70 2.554086267253644E1
70 71 -1.3388735237643188
70 72 9.756360372367961E-2
70 73 -2.09760150085886
70 85 -8.505832950600329
70 86 1.5213549122419976
70 87 1.8743591211705575
70 91 -7.509630412072934
70 92 1.7305804748371416
70 93 -2.004381083761072
70 100 -3.341339025518348E-1
70 101 9.238567848252032E-1
70 102 3.825423588008307E-1
70 103 -2.6391264701201362
70 104 -6.575422064338571E-2
70 105 9.027776229069748E-1
70 111 6.444363605246635E-2
70 730 -2.002367602770824
70 731 5.912003261586295E-1
70 745 -3.831490913888502E-2
70 746 -4.568974405111902E-1
70 759 -3.184319330063112
70 760 -8.847838510999135E-1
70 876 1.1787641523737307
71 67 -1.9167707150639757
71 68 -1.3271370952183907
71 69 -1.4018166333694226E-1
71 70 -1.3388735237643188
71 71 2.2056348165870972E1
71 72 -1.8446595683565764E-1
71 73 -2.0023676027339437
71 85 1.5213549122419994
71 86 -2.8686478344015196
71 87 -5.068266062701011E-1
71 91 1.7305804748371398
71 92 -2.614803112653987
71 93 6.344447978906835E-1
71 100 9.238567848252042E-1
71 101 -4.088728696574255
71 102 -4.107914373966082E-1
71 103 -6.575422064338686E-2
71 104 -2.8436779610734932
71 105 3.3188961866596287
71 111 -2.9838448706595138
71 730 -2.09760150085886
71 731 1.572810853811089E-1
71 745 1.1787641523737311
71 746 3.8438898205549654E-1
71 759 6.444363605246782E-2
71 760 -3.252745388147609
71 876 -3.327140992555871
72 67 1.4018166333694304E-1
72 68 5.023806573884972E-1
72 69 2.0111690594953785E-1
72 70 9.756360372367961E-2
72 71 -1.8446595683565764E-1
72 72 2.2376273829162493E1
72 73 -5.912003261624323E-1
72 85 2.856938771146448
72 86 -7.409248446975804E-1
72 87 -3.9653092835580734
72 91 -2.9506622441218076
72 92 9.381636375318474E-1
72 93 -3.8969457372589957
72 100 1.4844412037709E-1
72 101 5.717882125744116E-1
72 102 -2.527542176707685E-1
72 103 9.027776229069762E-1
72 104 3.3188961866596296
72 105 -7.126205340312488
72 111 -3.2527453881476074
72 730 -1.5728108539351965E-1
72 731 -1.113504341623972E-2
72 745 -1.5317860087589452E-1
72 746 1.1789967078546765E-1
72 759 -8.847838510999142E-1
72 760 -7.442940783680934
72 876 -5.618921783111086E-1
73 48 1.929755392323936
73 70 -2.09760150085886
73 71 -2.0023676027339437
73 72 -5.912003261624323E-1
73 73 3.298708328464024E1
73 91 -6.25129767184059E-1
73 92 -1.0409260733574188E1
73 93 -7.481852818233574E-1
73 109 2.0038217991896516
73 110 2.8099772181030565
73 111 -7.423003554697951
73 730 1.2580410211830668
73 731 -4.1060565143527583E-1
73 732 -2.8977095986559256
73 733 -5.027868013869964
73 734 2.0536330987017366
73 745 9.611328652764517E-1
73 746 3.8957468374613147E-1
73 747 1.0204246582703693
73 748 -1.694726459283396
73 749 -4.8201078155907634E-1
73 753 -8.249820058237236E-1
73 754 -1.6147843354240493E-1
73 755 -3.180103813765238
73 756 -6.257922631331453E-1
73 757 -1.2729092616782094
73 758 -9.751802538856652E-1
73 759 -5.569558089393045E-1
73 760 1.2953930857145737
73 876 -8.065797464918056E-2
73 877 2.384750600675479
73 878 -6.844566642934945
73 879 -1.612919776344539E-1
74 35 -3.3402495130310217
74 36 1.524782088653834
74 37 -7.580256364487203E-1
74 48 -4.273193058502085E-1
74 50 -7.398159285540739
74 51 1.666932375270905
74 52 2.9515758976516207
74 53 -6.103362685496752E-1
74 74 3.290529423531362E1
74 75 9.702499175841148E-2
74 76 -3.862060798351534
74 77 -4.488177233874514
74 78 2.1695734156183595
74 79 -9.245600684531591E-2
74 80 -5.275283020781272
74 81 -2.9761838032292145
74 82 2.0008225045719255
74 103 -2.3920826750974586
74 104 -6.114129614989763E-1
74 105 -3.246468865756808
74 106 2.7410156602203792
74 107 -7.758084107804676E-1
74 108 -1.6823048349766367E-1
74 109 -9.216163883664342
74 110 4.7863941729940604
74 111 1.852208888319061
74 702 -4.267200645259708
74 703 5.013464385706534E-2
74 735 -1.6480814823246583
74 736 -1.9094610097120304
74 737 -2.615154704470813E-1
74 759 2.3790878440397085
74 760 -1.4001699577275482
75 35 1.5247820886538335
75 36 -5.317843723712236E-1
75 37 7.446497769044211E-1
75 48 -7.058905240313148
75 50 1.6669323752709073
75 51 -2.56303297601023
75 52 -9.353315575290296E-1
75 53 -1.0204968284189922E1
75 74 9.702499175841148E-2
75 75 3.423173758242404E1
75 76 -1.085474125599807
75 77 2.16957341561836
75 78 -8.707645203610948
75 79 4.746431019122116E-1
75 80 -2.976183803229216
75 81 -4.688110759208962
75 82 1.8653708323274925
75 103 -6.114129614989745E-1
75 104 4.061689826567728E-1
75 105 -7.207671907861697E-1
75 106 -7.758084107804689E-1
75 107 -6.951759974404601E-1
75 108 -3.4908888221562844
75 109 -4.2731930585020883E-1
75 110 1.1801113857051635
75 111 8.282295306964316E-1
75 702 -6.103362685496774E-1
75 703 -3.2692549006205296E-1
75 735 -1.9094610097120301
75 736 -1.0165132626323412
75 737 -7.9986464060252E-1
75 759 1.852208888319061
75 760 3.0944767298865745
76 35 2.4424220873965985E-1
76 36 3.0102587472856923E-1
76 37 9.554473399226271E-2
76 48 1.1801113857051637
76 50 2.0052947372908854
76 51 -6.316127178878655E-1
76 52 -3.872607328583622
76 53 7.527246382237769E-1
76 74 -3.862060798351534
76 75 -1.085474125599807
76 76 3.135974123344062E1
76 77 1.7745208620005892E-2
76 78 -5.352254542490802E-1
76 79 -3.901647716319561
76 80 1.256808677912957
76 81 1.2293446062175155
76 82 -3.4463665059993946
76 103 -3.246468865756809
76 104 -7.207671907861695E-1
76 105 -3.181067321918105
76 106 -1.6823048349766312E-1
76 107 -3.490888822156285
76 108 3.4659157172222793E-1
76 109 4.7863941729940604
76 110 -1.4224639092565246E1
76 111 3.0944767298865723
76 702 -2.0811937467234523E-1
76 703 -4.59959142478784
76 735 5.745644744483311E-1
76 736 -9.371492408239124E-2
76 737 6.913420462486979E-1
76 759 -1.4001699577275482
76 760 7.326998047699605E-1
77 32 -1.0481608874758653E1
77 33 1.7324099235785486
77 34 -1.2682272366730554
77 35 -3.1986882711652713
77 36 -1.888069771628858
77 37 -2.2698584047179318
77 48 -1.5571333951349553
77 74 -4.488177233874514
77 75 2.16957341561836
77 76 1.7745208620005892E-2
77 77 3.403928695949707E1
77 78 3.0122570737612564E-1
77 79 3.28190867140341
77 80 -2.678317031047559
77 81 1.4032883669276752
77 82 2.057958217667757E-1
77 106 -8.901801485929521
77 107 -1.9593818057682316E-1
77 108 -5.623929374908989
77 109 8.452253294658152E-3
77 110 2.9510150296204385
77 195 -3.793270198193783
77 196 -1.7805981080088906
77 197 -2.4539200848094833E-1
77 202 -1.9378295338629616
77 203 2.7802794808174675E-1
77 221 3.225469061703156
77 222 1.7530715757117783
77 223 2.67291434528855
77 425 -3.7313451795255808
78 32 1.7324099235785497
78 33 -4.044000040204572
78 34 6.555516774577075E-1
78 35 -1.8880697716288586
78 36 -1.773386253004891
78 37 -9.503677519992224E-1
78 48 -7.244741770537E-1
78 74 2.1695734156183595
78 75 -8.707645203610948
78 76 -5.352254542490802E-1
78 77 3.0122570737612564E-1
78 78 3.0011530695482005E1
78 79 2.4057340648693715E-1
78 80 1.4032883669276752
78 81 -3.9787188462167056E-2
78 82 -3.1470447458812634E-1
78 106 -1.9593818057682333E-1
78 107 -5.645656287795508
78 108 -9.54019104466548E-2
78 109 -1.5571333951349553
78 110 2.4810264427493576
78 195 -1.7805981080088897
78 196 -7.924463420617645
78 197 5.093172898651193E-1
78 202 -1.8543684186500753
78 203 3.948553070266665E-1
78 221 1.7530715757117783
78 222 7.022502939174999E-1
78 223 -2.3856245323027045
78 425 -1.9378295338629614
79 32 -3.3689098765092296E-1
79 33 1.732644346522661E-1
79 34 -4.052166728925779
79 35 -1.4379624109683597
79 36 -3.6834829086029286E-1
79 37 -1.6296038877986145
79 48 2.481026442749357
79 74 -9.245600684531591E-2
79 75 4.746431019122116E-1
79 76 -3.901647716319561
79 77 3.28190867140341
79 78 2.4057340648693715E-1
79 79 2.78833069565312E1
79 80 -5.9122294685973E-1
79 81 3.769902672845257E-2
79 82 7.656972777254184E-2
79 106 -5.623929374908988
79 107 -9.540191044665437E-2
79 108 -1.1679146051914998E1
79 109 2.9510150296204385
79 110 -1.7390819318118744
79 195 -2.802692336040166E-1
79 196 -4.251056725903901E-1
79 197 -3.44404278913105
79 202 -1.3272600632918402E-1
79 203 -7.627151347994755E-1
79 221 2.6729143452885493
79 222 -2.3856245323027037
79 223 -7.5147244360239E-1
79 425 -5.431070854750628E-1
80 49 -3.8511224599977885
80 50 -3.3413390255183417E-1
80 51 9.238567848252046E-1
80 52 -1.4844412037708993E-1
80 74 -5.275283020781272
80 75 -2.976183803229216
80 76 1.256808677912957
80 77 -2.678317031047559
80 78 1.4032883669276752
80 79 -5.9122294685973E-1
80 80 2.2465550427815245E1
80 81 1.7219419702113166
80 82 2.1910003826160707E-2
80 103 -3.1533796482859695
80 104 -1.726722779777207E-1
80 105 -2.2818743073692285
80 106 -1.9986405171051866
80 107 1.7267227797772056E-1
80 108 2.281874307369228
80 202 8.908925058899282E-1
80 203 1.0341823803918127E-1
80 397 9.757439788636059E-1
80 398 5.757775375078092E-1
80 411 -4.331693073740671
80 412 -2.939539803488515
80 413 -1.2182473900492876
80 425 -8.429807743049715E-1
81 49 9.757439788636061E-1
81 50 9.238567848252034E-1
81 51 -4.088728696574253
81 52 -5.717882125744119E-1
81 74 -2.9761838032292145
81 75 -4.688110759208962
81 76 1.2293446062175155
81 77 1.4032883669276752
81 78 -3.9787188462167056E-2
81 79 3.769902672845257E-2
81 80 1.7219419702113166
81 81 2.3762956479038117E1
81 82 -6.326890935560203E-2
81 103 -1.7267227797772136E-1
81 104 -3.1781785893203662
81 105 2.4396714343904864
81 106 1.726722779777214E-1
81 107 -1.97384157607079
81 108 -2.4396714343904873
81 202 -4.633141440722825
81 203 6.682457970195322E-1
81 397 -2.3025141744016214E-1
81 398 1.4797768620571977E-1
81 411 -2.9395398034885147
81 412 -4.930916811238589
81 413 -1.4482099942412061
81 425 8.908925058899267E-1
82 49 -3.6585683701028593E-1
82 50 -3.825423588008306E-1
82 51 4.107914373966076E-1
82 52 -2.527542176707676E-1
82 74 2.0008225045719255
82 75 1.8653708323274925
82 76 -3.4463665059993946
82 77 2.057958217667757E-1
82 78 -3.1470447458812634E-1
82 79 7.656972777254184E-2
82 80 2.1910003826160707E-2
82 81 -6.326890935560203E-2
82 82 2.092645015401143E1
82 103 -2.281874307369227
82 104 2.439671434390486
82 105 -7.13542172900042
82 106 2.281874307369227
82 107 -2.4396714343904864
82 108 -5.744628684477471
82 202 -2.1676603194854538E-1
82 203 -7.803183218849001E-1
82 397 3.969632890638207E-1
82 398 -1.8363827824761725E-1
82 411 -1.7811679202520514
82 412 -2.0783861428956474
82 413 -3.4598921445034034
82 425 3.010387858983066E-1
83 49 -3.118744736887487
83 50 -8.274424357091897
83 51 1.512184437809588
83 52 -2.8576118253707756
83 83 3.052336332421622E1
83 103 2.0047469278293404
83 104 1.8151258378310375
83 105 1.8359929808842113
83 111 -1.2596172570148962
83 358 -1.642392136241365
83 359 -1.917281420480959
83 360 2.0935324988087456E-1
83 365 3.5832416091202433
83 366 1.7587625484531384
83 381 -5.463479367742568
83 382 -1.7536758516413873
83 383 -3.561512379531001
83 397 -1.1054206370336828E-1
83 398 -2.1136179929720647E-1
83 426 -1.1089766227396458
83 427 1.4947901706800123E-2
83 492 -8.583482778432552
83 493 -3.923350439060179E-1
83 603 -8.841362246691392E-2
83 604 1.3991851121857872
83 605 7.167832807346333E-1
83 625 -5.071531886964733E-1
83 626 1.1755786603713378
83 627 -1.161437009458285
83 759 -1.2198646518348986
83 760 2.947863559682971
83 868 -3.6301554126514035
83 869 -2.6346679055170785
84 14 -2.204304235571068
84 15 -2.557036049154203E-1
84 16 1.405543985984321
84 17 -2.0292263291204966
84 18 7.010569482921704E-1
84 19 7.078919400567305E-1
84 31 1.019192341160814
84 43 -6.820407812062299E-1
84 44 -1.3655836752968427
84 45 1.3740024361284686E-1
84 46 4.9400315158819863E-1
84 47 8.001411269908798E-1
84 48 2.0696251620481343E-15
84 60 -2.335237847683942
84 61 -3.1355801857747907
84 62 -5.929651608289221E-1
84 63 -2.0601597702988728
84 84 1.5627635547626241E1
84 109 -5.241246168269711
84 110 -3.090628438522355E-15
84 729 -9.908175263459031E-1
85 67 -3.16706077456053
85 68 -1.0900256589612113E-1
85 69 2.1588754884820488E-1
85 70 -8.505832950600329
85 71 1.5213549122419994
85 72 2.856938771146448
85 85 3.0703773779320123E1
85 86 2.0952708649810197E-3
85 87 -3.66218511421693
85 103 1.9416769583228273
85 104 1.8384309696262817
85 105 -1.834442944887238
85 111 -1.2615096429296555
85 368 -1.612808275010393
85 369 -1.9091909779141465
85 370 -2.0145829279035438E-1
85 381 -5.487023554385083
85 382 -1.8058643352413881
85 383 3.6319594977682197
85 610 -1.0806873328014993E-1
85 611 1.4053417737259983
85 612 -7.218245165597582E-1
85 619 -8.505169346818057
85 620 1.7605175951718137
85 621 3.549814085464174E-1
85 625 -5.484212242681565E-1
85 626 1.2514202039171436
85 627 1.1713326141277371
85 745 -3.670681938518986
85 746 1.0975114407084945
85 759 -1.0403839402012667
85 760 -2.908700412691241
85 876 -2.6935932035669072
86 67 -1.090025658961212E-1
86 68 -8.776173373334192
86 69 -5.621323456971238E-1
86 70 1.5213549122419976
86 71 -2.8686478344015196
86 72 -7.409248446975804E-1
86 85 2.0952708649810197E-3
86 86 2.9843767696044182E1
86 87 -5.974292434952718E-1
86 103 1.8384309696262835
86 104 5.899428494145221E-1
86 105 2.5025621529288
86 111 1.3553999249820805
86 368 -1.9091909779141472
86 369 -1.161693781866286
86 370 -4.0584505116955794E-1
86 381 -1.80586433524139
86 382 -3.961691793791023
86 383 2.261997233754553
86 610 1.405341773725997
86 611 -2.750459489615293
86 612 8.686689731705088E-1
86 619 1.760517595171816
86 620 -3.0649204474840266
86 621 -1.997713917437201E-1
86 625 1.251420203917144
86 626 -3.16156421204193
86 627 -3.618035420659348
86 745 -2.693593203566906
86 746 1.607739801279152
86 759 -1.261509642929656
86 760 -1.1168298636704117
86 876 -6.043959537906521
87 67 -3.309805400485244E-2
87 68 3.795020288229145E-1
87 69 -3.3904185239479374
87 70 1.8743591211705575
87 71 -5.068266062701011E-1
87 72 -3.9653092835580734
87 85 -3.66218511421693
87 86 -5.974292434952718E-1
87 87 2.6071599407733842E1
87 103 -1.8344429448872388
87 104 2.5025621529287996
87 105 7.395867224421132E-1
87 111 -1.1168298636704117
87 368 4.287178558822229E-1
87 369 1.5707547903532726E-1
87 370 5.570068560107111E-3
87 381 3.6319594977682197
87 382 2.2619972337545518
87 383 -9.693259153451077
87 610 -3.69421015256446E-1
87 611 7.165020453814192E-2
87 612 -9.387654153905611E-2
87 619 1.2399932375159188
87 620 -3.973919396071277E-1
87 621 -3.0031188704657845
87 625 1.1713326141277363
87 626 -3.618035420659347
87 627 -2.554857031506309
87 745 4.6148521459205144E-1
87 746 -2.768311111100317
87 759 -2.9087004126912386
87 760 -1.3476056831675083
87 876 8.637259746225237E-1
88 43 2.178475937492115E-1
88 44 -1.7606332661970068
88 45 -3.0589884915402585
88 48 1.687139540424257
88 54 2.022571772828752E-1
88 55 -5.75674341932587E-1
88 56 1.0948944651608234
88 64 -1.2253015198236952E1
88 65 3.248527782583387E-1
88 66 -1.3891996450958437
88 88 3.709549375684591E1
88 89 1.1482600273013135
88 90 -2.2357782754312483
88 94 -6.728353013112123
88 95 -2.113290025241907
88 96 1.3612877720100713
88 97 -1.0481608874758656E1
88 98 1.7324099235785497
88 99 3.368909876509225E-1
88 109 4.206605105945075
88 110 7.251856957981092E-1
88 136 -2.8986800113688025
88 137 3.5840496592022175E-1
88 138 2.2107717947985117
88 139 8.434540569780203E-1
88 140 1.7993192752875777
88 141 -1.5275526521492462
88 160 -2.5202381213862396E-1
88 161 1.2575220164703038E-1
88 207 -2.4494049047736604
88 208 -1.8191357605604863
88 209 -5.543583352044958E-1
88 213 -7.887622579502963E-1
88 221 -6.965833430600605
88 222 -5.296293046996466E-1
88 223 2.911094482355623
89 43 -1.7606332661970072
89 44 2.3736627285543963
89 45 -1.1796187677544852
89 48 1.82885910291845
89 54 -5.75674341932587E-1
89 55 8.100398763072326E-1
89 56 1.0587741377532849
89 64 3.2485277825834047E-1
89 65 -9.134512031468876
89 66 -3.76808434112958E-1
89 88 1.1482600273013135
89 89 3.331817832136134E1
89 90 -3.791951933894187
89 94 -2.113290025241907
89 95 -1.0940130024015822E1
89 96 3.744529731144649
89 97 1.7324099235785488
89 98 -4.044000040204574
89 99 -1.7326443465226588E-1
89 109 1.6871395404242573
89 110 -3.1268932042273145
89 136 3.5840496592022186E-1
89 137 -1.7856583730873634
89 138 -9.181654267834582E-1
89 139 1.7993192752875768
89 140 1.1065285640886502
89 141 1.8336364336603892
89 160 -5.040593430773386
89 161 -1.0398142884916277
89 207 -1.8191357605604863
89 208 -8.282548970037584E-1
89 209 1.0671182304127114E-2
89 213 -2.5202381213862346E-1
89 221 -5.296293046996468E-1
89 222 -7.664119796676283
89 223 3.9589050050538472
90 43 -3.0589884915402568
90 44 -1.1796187677544876
90 45 4.8153913762193856E-1
90 48 -3.126893204227315
90 54 2.04783933868188E-1
90 55 5.149238542586904E-1
90 56 2.7422242923224003
90 64 -1.3891996450958444
90 65 -3.7680843411295584E-1
90 66 -1.127555601502343E1
90 88 -2.2357782754312483
90 89 -3.791951933894187
90 90 3.5829265028928994E1
90 94 1.3910158843818001
90 95 2.713889290571044
90 96 -9.383696647046545
90 97 1.2682272366730558
90 98 -6.555516774577074E-1
90 99 -4.052166728925782
90 109 7.251856957981083E-1
90 110 1.942163215482581
90 136 1.318722186606622
90 137 -4.432782947207533E-1
90 138 -3.4706056996068306
90 139 -1.5275526521492468
90 140 1.8336364336603894
90 141 3.4808296149784
90 160 -1.3676762191592307E-2
90 161 -1.2101957739632474
90 207 3.0796316061566326E-1
90 208 5.664244908150278E-1
90 209 2.1333598142476523E-1
90 213 8.452648391753495E-2
90 221 2.9110944823556224
90 222 3.9589050050538477
90 223 -1.5297136406193239E1
91 48 -4.401705416817563E-1
91 70 -7.509630412072934
91 71 1.7305804748371398
91 72 -2.9506622441218076
91 73 -6.25129767184059E-1
91 91 3.319501818352205E1
91 92 1.2320678926558698E-1
91 93 3.899459410406421
91 94 -3.340249513031023
91 95 1.524782088653834
91 96 7.580256364487205E-1
91 97 -4.488177233874515
91 98 2.169573415618361
91 99 9.245600684531623E-2
91 100 -5.2752830207812735
91 101 -2.9761838032292163
91 102 -2.000822504571927
91 103 -2.4701964648755985
91 104 -6.588455435941818E-1
91 105 3.2380825420423163
91 106 2.7410156602203797
91 107 -7.758084107804678E-1
91 108 1.6823048349766312E-1
91 109 -9.364705894052252
91 110 -4.814279972252185
91 111 1.837456307806788
91 730 -4.346097968948153
91 731 -3.190878927848484E-2
91 747 -1.6480814823246557
91 748 -1.9094610097120295
91 749 2.6151547044708134E-1
91 759 2.5063881462179793
91 760 1.3799039605368857
92 48 -7.174733439900929
92 70 1.7305804748371416
92 71 -2.614803112653987
92 72 9.381636375318474E-1
92 73 -1.0409260733574188E1
92 91 1.2320678926558698E-1
92 92 3.4526166410576096E1
92 93 9.521777817314381E-1
92 94 1.5247820886538335
92 95 -5.31784372371224E-1
92 96 -7.44649776904421E-1
92 97 2.1695734156183613
92 98 -8.707645203610948
92 99 -4.746431019122114E-1
92 100 -2.976183803229217
92 101 -4.688110759208966
92 102 -1.8653708323274945
92 103 -6.5884554359418E-1
92 104 2.5355771563531626E-1
92 105 7.708812912280847E-1
92 106 -7.758084107804688E-1
92 107 -6.951759974404625E-1
92 108 3.4908888221562835
92 109 -4.4017054168175596E-1
92 110 -1.1013157516381424
92 111 1.0583027551816264
92 730 -6.251297671840603E-1
92 731 3.314648464624719E-1
92 747 -1.909461009712029
92 748 -1.0165132626323388
92 749 7.998646406025198E-1
92 759 1.8374563078067871
92 760 -3.0974615569303756
93 48 -1.101315751638143
93 70 -2.004381083761072
93 71 6.344447978906835E-1
93 72 -3.8969457372589957
93 73 -7.481852818233574E-1
93 91 3.899459410406421
93 92 9.521777817314381E-1
93 93 3.149564765122447E1
93 94 -2.4424220873965963E-1
93 95 -3.0102587472856923E-1
93 96 9.554473399226193E-2
93 97 -1.7745208620006087E-2
93 98 5.352254542490804E-1
93 99 -3.90164771631956
93 100 -1.2568086779129581
93 101 -1.2293446062175173
93 102 -3.446366505999398
93 103 3.2380825420423163
93 104 7.708812912280845E-1
93 105 -3.246450633013671
93 106 1.6823048349766345E-1
93 107 3.4908888221562835
93 108 3.4659157172222765E-1
93 109 -4.8142799722521845
93 110 -1.4282330810099921E1
93 111 -3.097461556930374
93 730 2.2634522925092518E-1
93 731 -4.679498646748647
93 747 -5.745644744483307E-1
93 748 9.371492408239157E-2
93 749 6.913420462486987E-1
93 759 1.3799039605368857
93 760 8.241140462525379E-1
94 31 -1.689026900136682
94 43 3.4494683018391137
94 44 1.5404653200210934
94 45 -1.7501701133790002
94 48 -5.706095967800602E-1
94 54 -3.613194341887864
94 55 5.490885839128752E-1
94 56 2.4445104913709277
94 57 -3.8217075894012034
94 58 -9.77521418584399E-1
94 59 2.643309050441634
94 60 2.058059909997063
94 61 -8.233654113405978
94 62 -1.1543789231346606
94 63 -2.4871074998682734
94 64 2.372087886436192
94 65 1.6448558886653974
94 66 -1.1543331558737173
94 88 -6.728353013112123
94 89 -2.113290025241907
94 90 1.3910158843818001
94 91 -3.340249513031023
94 92 1.5247820886538335
94 93 -2.4424220873965963E-1
94 94 3.036287958172882E1
94 95 2.3361148723404486
94 96 -4.483858566153257
94 97 -3.1986882711652687
94 98 -1.8880697716288575
94 99 1.4379624109683586
94 109 -8.361238003976684
94 110 3.913244778259182
94 729 -1.5653886918374003
94 747 -9.454108340210445E-1
94 748 7.975898819129175E-1
94 749 -1.4494237957059497E-1
95 31 1.8309807368609237
95 43 1.5404653200210952
95 44 2.619003550275773
95 45 1.2252396931153477
95 48 -8.293879779981166
95 54 5.490885839128752E-1
95 55 -2.1407417805863616
95 56 -1.009877893864176
95 57 -9.77521418584399E-1
95 58 -2.1317205419729057
95 59 1.2185091144957862
95 60 -1.6890269001366818
95 61 -1.1543789231346613
95 62 -6.192880438160171
95 63 6.913905841587373E-1
95 64 1.6448558886653961
95 65 2.2376052364733074
95 66 -4.872237043407277E-2
95 88 -2.113290025241907
95 89 -1.0940130024015822E1
95 90 2.713889290571044
95 91 1.524782088653834
95 92 -5.31784372371224E-1
95 93 -3.0102587472856923E-1
95 94 2.3361148723404486
95 95 3.0659142951183153E1
95 96 -3.414141347470244
95 97 -1.8880697716288568
95 98 -1.7733862530048883
95 99 3.68348290860292E-1
95 109 -5.706095967800614E-1
95 110 -2.7078000387826046E-1
95 729 -2.158568016271883
95 747 7.97589881912918E-1
95 748 -5.3422092847006155
95 749 9.857385334459972E-1
96 31 -2.1585680162718828
96 43 -1.7501701133790026
96 44 1.2252396931153475
96 45 -9.966720496235331E-1
96 48 -2.707800038782592E-1
96 54 1.5490936884362139
96 55 -4.9114367162636785E-1
96 56 -3.9836941714930476
96 57 1.6707693176249823
96 58 6.314925760980319E-1
96 59 -3.3591152700344287
96 60 -1.5653886918374007
96 61 -2.487107499868272
96 62 6.913905841587403E-1
96 63 -5.1863067277929495
96 64 -1.1543331558737164
96 65 -4.8722370434074416E-2
96 66 5.147111319585564
96 88 1.3612877720100713
96 89 3.744529731144649
96 90 -9.383696647046545
96 91 7.580256364487205E-1
96 92 -7.44649776904421E-1
96 93 9.554473399226193E-2
96 94 -4.483858566153257
96 95 -3.414141347470244
96 96 3.415864897236264E1
96 97 2.2698584047179304
96 98 9.503677519992214E-1
96 99 -1.6296038877986112
96 109 3.913244778259185
96 110 -1.748630124694138E1
96 729 3.7227373849654315
96 747 -8.142157038545472E-2
96 748 -1.1501514993074169E-1
96 749 -1.098652410175405
97 48 -1.557133395134955
97 88 -1.0481608874758656E1
97 89 1.7324099235785488
97 90 1.2682272366730558
97 91 -4.488177233874515
97 92 2.1695734156183613
97 93 -1.7745208620006087E-2
97 94 -3.1986882711652687
97 95 -1.8880697716288568
97 96 2.2698584047179304
97 97 3.403928695949706E1
97 98 3.012257073761253E-1
97 99 -3.2819086714034063
97 100 -2.67831703104756
97 101 1.4032883669276752
97 102 -2.057958217667759E-1
97 106 -8.901801485929521
97 107 -1.9593818057682383E-1
97 108 5.62392937490899
97 109 8.452253294656625E-3
97 110 -2.9510150296204376
97 207 -3.7932701981937864
97 208 -1.7805981080088924
97 209 2.4539200848094755E-1
97 221 3.2254690617031625
97 222 1.753071575711779
97 223 -2.6729143452885498
97 443 -3.7313451795255794
97 444 -1.9378295338629616
97 445 -2.7802794808174736E-1
98 48 -7.244741770537007E-1
98 88 1.7324099235785497
98 89 -4.044000040204574
98 90 -6.555516774577074E-1
98 91 2.169573415618361
98 92 -8.707645203610948
98 93 5.352254542490804E-1
98 94 -1.8880697716288575
98 95 -1.7733862530048883
98 96 9.503677519992214E-1
98 97 3.012257073761253E-1
98 98 3.0011530695481998E1
98 99 -2.405734064869364E-1
98 100 1.4032883669276746
98 101 -3.9787188462168055E-2
98 102 3.147044745881257E-1
98 106 -1.95938180576824E-1
98 107 -5.645656287795506
98 108 9.540191044665533E-2
98 109 -1.557133395134955
98 110 -2.481026442749357
98 207 -1.780598108008892
98 208 -7.924463420617647
98 209 -5.093172898651203E-1
98 221 1.753071575711779
98 222 7.022502939175045E-1
98 223 2.3856245323027045
98 443 -1.937829533862961
98 444 -1.8543684186500748
98 445 -3.9485530702666677E-1
99 48 -2.4810264427493562
99 88 3.368909876509225E-1
99 89 -1.7326443465226588E-1
99 90 -4.052166728925782
99 91 9.245600684531623E-2
99 92 -4.746431019122114E-1
99 93 -3.90164771631956
99 94 1.4379624109683586
99 95 3.68348290860292E-1
99 96 -1.6296038877986112
99 97 -3.2819086714034063
99 98 -2.405734064869364E-1
99 99 2.7883306956531193E1
99 100 5.912229468597295E-1
99 101 -3.769902672845321E-2
99 102 7.656972777254084E-2
99 106 5.623929374908987
99 107 9.540191044665484E-2
99 108 -1.1679146051914994E1
99 109 -2.951015029620437
99 110 -1.7390819318118762
99 207 2.8026923360401657E-1
99 208 4.2510567259038934E-1
99 209 -3.44404278913105
99 221 -2.6729143452885484
99 222 2.385624532302703
99 223 -7.514724436023855E-1
99 443 5.431070854750619E-1
99 444 1.3272600632918385E-1
99 445 -7.627151347994751E-1
100 67 -3.8511224599977885
100 68 9.757439788636056E-1
100 69 -5.757775375078094E-1
100 70 -3.341339025518348E-1
100 71 9.238567848252042E-1
100 72 1.4844412037709E-1
100 91 -5.2752830207812735
100 92 -2.976183803229217
100 93 -1.2568086779129581
100 97 -2.67831703104756
100 98 1.4032883669276746
100 99 5.912229468597295E-1
100 100 2.246555042781526E1
100 101 1.7219419702113206
100 102 -2.1910003826160873E-2
100 103 -3.1533796482859717
100 104 -1.7267227797772117E-1
100 105 2.281874307369228
100 106 -1.9986405171051866
100 107 1.72672277977721E-1
100 108 -2.281874307369227
100 428 -4.3316930737406745
100 429 -2.939539803488515
100 430 1.2182473900492887
100 443 -8.429807743049682E-1
100 444 8.908925058899272E-1
100 445 -1.0341823803918127E-1
101 67 9.757439788636062E-1
101 68 -2.3025141744016253E-1
101 69 -1.4797768620571955E-1
101 70 9.238567848252032E-1
101 71 -4.088728696574255
101 72 5.717882125744116E-1
101 91 -2.9761838032292163
101 92 -4.688110759208966
101 93 -1.2293446062175173
101 97 1.4032883669276752
101 98 -3.9787188462168055E-2
101 99 -3.769902672845321E-2
101 100 1.7219419702113206
101 101 2.3762956479038117E1
101 102 6.326890935560436E-2
101 103 -1.726722779777221E-1
101 104 -3.178178589320368
101 105 -2.4396714343904877
101 106 1.726722779777216E-1
101 107 -1.97384157607079
101 108 2.4396714343904877
101 428 -2.939539803488514
101 429 -4.93091681123859
101 430 1.4482099942412057
101 443 8.908925058899247E-1
101 444 -4.633141440722819
101 445 -6.682457970195317E-1
102 67 3.658568370102858E-1
102 68 -3.9696328906382045E-1
102 69 -1.8363827824761736E-1
102 70 3.825423588008307E-1
102 71 -4.107914373966082E-1
102 72 -2.527542176707685E-1
102 91 -2.000822504571927
102 92 -1.8653708323274945
102 93 -3.446366505999398
102 97 -2.057958217667759E-1
102 98 3.147044745881257E-1
102 99 7.656972777254084E-2
102 100 -2.1910003826160873E-2
102 101 6.326890935560436E-2
102 102 2.092645015401144E1
102 103 2.2818743073692276
102 104 -2.4396714343904877
102 105 -7.135421729000424
102 106 -2.281874307369227
102 107 2.4396714343904877
102 108 -5.744628684477471
102 428 1.7811679202520525
102 429 2.078386142895648
102 430 -3.4598921445034043
102 443 -3.0103878589830624E-1
102 444 2.1676603194854516E-1
102 445 -7.803183218848982E-1
103 48 -1.3008046310487935
103 49 -6.764801872024029
103 50 -2.6115722172163793
103 51 -3.0674689408594982E-2
103 52 -8.941771753351193E-1
103 67 -6.740232743277859
103 68 -6.7841687181188E-1
103 69 -4.218073643808525
103 70 -2.6391264701201362
103 71 -6.575422064338686E-2
103 72 9.027776229069762E-1
103 74 -2.3920826750974586
103 75 -6.114129614989745E-1
103 76 -3.246468865756809
103 80 -3.1533796482859695
103 81 -1.7267227797772136E-1
103 82 -2.281874307369227
103 83 2.0047469278293404
103 85 1.9416769583228273
103 86 1.8384309696262835
103 87 -1.8344429448872388
103 91 -2.4701964648755985
103 92 -6.5884554359418E-1
103 93 3.2380825420423163
103 100 -3.1533796482859717
103 101 -1.726722779777221E-1
103 102 2.2818743073692276
103 103 6.3221944955969505E1
103 104 -1.0873946718945668
103 105 5.612171188533202E-3
103 106 -1.2700227108269075E1
103 107 7.419896444214334
103 108 1.1102230246251565E-16
103 109 -1.348393978443963
103 110 4.771534936216154E-3
103 111 -2.520840312915336
103 365 1.8359929808842121
103 381 -1.2396426464573649E1
103 382 2.306043677749053
103 383 -1.5755688876206875E-2
103 397 -6.846378695977379E-1
103 398 4.228191388182312
103 411 3.902628620266868
103 412 -2.8922526803016846E-1
103 413 3.643337909425054E-1
103 427 1.8151258378310375
103 428 3.902628620266869
103 429 -2.892252680301682E-1
103 430 -3.64333790942506E-1
103 446 -1.1060169818925875E1
103 447 -4.816920064991477
103 448 -3.4036908806225896E-4
103 759 -7.5436369732594475
103 760 -6.169552388605978E-3
104 48 4.600239398312296
104 49 -6.84637869597736E-1
104 50 -3.06746894085954E-2
104 51 -2.698860252197463
104 52 -3.2601689266440212
104 67 -6.78416871811878E-1
104 68 -4.346380287370627
104 69 -1.281604609421715
104 70 -6.575422064338571E-2
104 71 -2.8436779610734932
104 72 3.3188961866596296
104 74 -6.114129614989763E-1
104 75 4.061689826567728E-1
104 76 -7.207671907861695E-1
104 80 -1.726722779777207E-1
104 81 -3.1781785893203662
104 82 2.439671434390486
104 83 1.8151258378310375
104 85 1.8384309696262817
104 86 5.899428494145221E-1
104 87 2.5025621529287996
104 91 -6.588455435941818E-1
104 92 2.5355771563531626E-1
104 93 7.708812912280845E-1
104 100 -1.7267227797772117E-1
104 101 -3.178178589320368
104 102 -2.4396714343904877
104 103 -1.0873946718945668
104 104 7.322521185553342E1
104 105 -7.7327727010984E-2
104 106 7.419896444214334
104 107 -1.9634727241538336E1
104 108 2.7755575615628914E-16
104 109 -1.3008046310487922
104 110 -3.0999995588969237E-2
104 111 -2.3344193073136676E1
104 365 -2.498381594071404
104 381 2.3060436777490545
104 382 -5.219190175868815
104 383 1.0984988084221013E-2
104 397 -4.375434481399375
104 398 1.2868952371429563
104 411 -2.8922526803016874E-1
104 412 2.0177943392749226E-1
104 413 2.812127419932815
104 427 7.924243466804245E-1
104 428 -2.8922526803016885E-1
104 429 2.017794339274912E-1
104 430 -2.812127419932815
104 446 -4.816920064991477
104 447 -1.1452283364862202E1
104 448 2.7334115719984675E-4
104 759 -2.520840312915336
104 760 -2.1243153677626338E-2
105 48 -3.0999995588969098E-2
105 49 4.228191388182314
105 50 -8.941771753351182E-1
105 51 -3.26016892664402
105 52 -7.147718806983371
105 67 -4.218073643808525
105 68 -1.2816046094217157
105 69 -8.418606886619205
105 70 9.027776229069748E-1
105 71 3.3188961866596287
105 72 -7.126205340312488
105 74 -3.246468865756808
105 75 -7.207671907861697E-1
105 76 -3.181067321918105
105 80 -2.2818743073692285
105 81 2.4396714343904864
105 82 -7.13542172900042
105 83 1.8359929808842113
105 85 -1.834442944887238
105 86 2.5025621529288
105 87 7.395867224421132E-1
105 91 3.2380825420423163
105 92 7.708812912280847E-1
105 93 -3.246450633013671
105 100 2.281874307369228
105 101 -2.4396714343904877
105 102 -7.135421729000424
105 103 5.612171188533202E-3
105 104 -7.7327727010984E-2
105 105 6.410476424156067E1
105 106 -2.7755575615628914E-17
105 107 1.3877787807814457E-16
105 108 -7.756999559314025
105 109 4.771534936216071E-3
105 110 4.913584251381722
105 111 -2.1243153677627538E-2
105 365 8.472241592260001E-1
105 381 -1.5755688876207045E-2
105 382 1.0984988084220703E-2
105 383 -3.5013483764219764
105 397 1.2868952371429567
105 398 -8.444683241747793
105 411 3.6433379094250545E-1
105 412 2.812127419932815
105 413 2.409108917207915
105 427 -2.498381594071404
105 428 -3.643337909425062E-1
105 429 -2.812127419932815
105 430 2.4091089172079165
105 446 -3.403690880626753E-4
105 447 2.733411571994304E-4
105 448 -6.033400880788497
105 759 -6.169552388605828E-3
105 760 -6.296052703906359
106 48 -3.3101217809121994
106 74 2.7410156602203792
106 75 -7.758084107804689E-1
106 76 -1.6823048349766312E-1
106 77 -8.901801485929521
106 78 -1.9593818057682333E-1
106 79 -5.623929374908988
106 80 -1.9986405171051866
106 81 1.726722779777214E-1
106 82 2.281874307369227
106 91 2.7410156602203797
106 92 -7.758084107804688E-1
106 93 1.6823048349766345E-1
106 97 -8.901801485929521
106 98 -1.95938180576824E-1
106 99 5.623929374908987
106 100 -1.9986405171051866
106 101 1.726722779777216E-1
106 102 -2.281874307369227
106 103 -1.2700227108269075E1
106 104 7.419896444214334
106 105 -2.7755575615628914E-17
106 106 6.797624535307409E1
106 107 -3.9892404502860925
106 108 4.2498430560896046E-16
106 109 -9.91352386330712
106 110 -7.216449660063518E-16
106 195 6.827662576734854E-1
106 196 1.9344093294661595
106 197 -1.0842134755000556
106 201 1.1739747907507168
106 202 -2.053738034046918E-16
106 203 -1.1749008584553818E-15
106 207 -1.8448843227830034
106 208 2.379146622274526
106 209 1.0842134755000556
106 221 -9.194615918095181
106 222 3.385847725323989
106 223 5.551115123125783E-17
106 411 -1.477527684329752
106 412 7.252877052227908E-1
106 413 3.420524235786765
106 423 -1.4974232942293244
106 424 -2.9194634249786535
106 425 -4.041145776763976
106 428 -1.4775276843297487
106 429 7.252877052227908E-1
106 430 -3.4205242357867633
106 440 1.0302272862271618
106 441 -3.36420071778702
106 442 -1.173974790750717
106 443 -4.041145776763976
106 444 9.331814615110079E-17
106 445 5.418088108115653E-16
106 446 -7.182364782474913
106 447 -1.3887005310014806
106 448 -5.828670879282072E-16
107 48 -7.762906675125393
107 74 -7.758084107804676E-1
107 75 -6.951759974404601E-1
107 76 -3.490888822156285
107 77 -1.9593818057682316E-1
107 78 -5.645656287795508
107 79 -9.540191044665437E-2
107 80 1.7267227797772056E-1
107 81 -1.97384157607079
107 82 -2.4396714343904864
107 91 -7.758084107804678E-1
107 92 -6.951759974404625E-1
107 93 3.4908888221562835
107 97 -1.9593818057682383E-1
107 98 -5.645656287795506
107 99 9.540191044665484E-2
107 100 1.72672277977721E-1
107 101 -1.97384157607079
107 102 2.4396714343904877
107 103 7.419896444214334
107 104 -1.9634727241538336E1
107 105 1.3877787807814457E-16
107 106 -3.9892404502860925
107 107 6.951976601761064E1
107 108 2.0945806391314646E-15
107 109 -3.3101217809122008
107 110 4.49293380277993E-16
107 195 1.9344093294661575
107 196 -2.6649563618591974
107 197 3.083540083802059
107 201 3.3130225022108175
107 202 -4.041145776763977
107 203 -1.9372904826772802E-15
107 207 2.379146622274524
107 208 -8.7947433100575
107 209 -3.08354008380206
107 221 3.385847725323992
107 222 -7.357697907713424E-1
107 223 -9.454242944073599E-17
107 411 7.25287705222791E-1
107 412 1.1518087950913372
107 413 -3.7060041901945145E-1
107 423 -2.919463424978654
107 424 -7.581193807015345
107 425 1.0063004835064083E-16
107 428 7.252877052227911E-1
107 429 1.1518087950913414
107 430 3.706004190194509E-1
107 440 -3.3642007177870203
107 441 -1.451406858817049
107 442 -3.3130225022108184
107 443 1.8517435561556243E-16
107 444 -4.041145776763975
107 445 2.3927469232326516E-16
107 446 -1.3887005310014806
107 447 1.5139597135323253
107 448 8.881784197001252E-16
108 48 1.4137996329210978E-16
108 74 -1.6823048349766367E-1
108 75 -3.4908888221562844
108 76 3.4659157172222793E-1
108 77 -5.623929374908989
108 78 -9.54019104466548E-2
108 79 -1.1679146051914998E1
108 80 2.281874307369228
108 81 -2.4396714343904873
108 82 -5.744628684477471
108 91 1.6823048349766312E-1
108 92 3.4908888221562835
108 93 3.4659157172222765E-1
108 97 5.62392937490899
108 98 9.540191044665533E-2
108 99 -1.1679146051914994E1
108 100 -2.281874307369227
108 101 2.4396714343904877
108 102 -5.744628684477471
108 103 1.1102230246251565E-16
108 104 2.7755575615628914E-16
108 105 -7.756999559314025
108 106 4.2498430560896046E-16
108 107 2.0945806391314646E-15
108 108 6.946871114986455E1
108 109 -7.771561172376096E-16
108 110 -2.6963667011474493
108 195 -1.084213475500055
108 196 3.0835400838020592
108 197 -7.697011597499642E-1
108 201 -5.920060080182163E-1
108 202 -2.468747367189584E-15
108 203 -1.0102864441909942E1
108 207 1.0842134755000543
108 208 -3.0835400838020606
108 209 -3.243254739365619
108 221 -5.551115123125783E-17
108 222 2.0252896582029223E-16
108 223 -2.856782637088787E-1
108 411 3.420524235786764
108 412 -3.706004190194514E-1
108 413 -1.6614546311365903
108 423 1.1739747907507188
108 424 3.313022502210819
108 425 -1.5866511513903319E-15
108 428 -3.420524235786762
108 429 3.706004190194512E-1
108 430 -1.6614546311365863
108 440 -1.1739747907507174
108 441 -3.3130225022108197
108 442 1.881547571597429
108 443 6.039713127933296E-16
108 444 7.701586496529352E-16
108 445 -1.0102864441909938E1
108 446 -8.326672684688674E-16
108 447 9.43689570931383E-16
108 448 1.6767521852757041
109 14 -1.2701795757960788
109 15 1.155517997070323
109 16 -2.0146268311478575
109 17 -4.586781714996847
109 18 -9.544222064558184E-1
109 19 -1.633130472537562E-1
109 28 -2.330305365923359
109 29 -1.2943389862032142
109 30 -2.9975038818838673
109 31 -1.6190476934146958
109 32 4.304217290245132
109 33 1.9255024392175033
109 34 -7.241960019262645E-1
109 35 -8.89412126119535
109 36 -6.041265466869772E-1
109 37 -4.416151623550686
109 38 3.055720802393649
109 39 -1.2862473346421546
109 43 -1.0778835329821883E1
109 44 2.8311598148820307
109 45 1.1861930253818491E-1
109 46 3.616081113277556E-15
109 47 -3.543715663586459E-15
109 48 3.8959319241356285
109 53 1.948576024907526
109 60 -5.723071775416232
109 61 2.999554695916388E-1
109 62 9.554237791525149E-1
109 63 2.0584589679012186
109 73 2.0038217991896516
109 74 -9.216163883664342
109 75 -4.2731930585020883E-1
109 76 4.7863941729940604
109 77 8.452253294658152E-3
109 78 -1.5571333951349553
109 79 2.9510150296204385
109 84 -5.241246168269711
109 88 4.206605105945075
109 89 1.6871395404242573
109 90 7.251856957981083E-1
109 91 -9.364705894052252
109 92 -4.4017054168175596E-1
109 93 -4.8142799722521845
109 94 -8.361238003976684
109 95 -5.706095967800614E-1
109 96 3.913244778259185
109 97 8.452253294656625E-3
109 98 -1.557133395134955
109 99 -2.951015029620437
109 103 -1.348393978443963
109 104 -1.3008046310487922
109 105 4.771534936216071E-3
109 106 -9.91352386330712
109 107 -3.3101217809122008
109 108 -7.771561172376096E-16
109 109 7.546383223353591E1
109 110 5.211253024273065E-1
109 111 3.065936377138881
109 221 2.725283831620473
109 222 -6.555313621807555E-1
109 223 4.120616718649189E-2
109 702 2.798155064063672
109 703 1.430474436773813
109 729 2.7491379969362932
109 730 2.854626790458858
109 731 -1.4442244454859348
109 735 -2.3149797830965912
109 736 -9.303198406079152E-1
109 737 -1.904262785606916
109 744 3.4348676432424163E-1
109 747 -2.218310686589966
109 748 -8.711590164753042E-1
109 749 1.8989802548860593
109 756 -7.717578768916834
109 757 -2.090524062908553
109 758 -1.2833186246262598E-1
109 759 -6.445865040976513
109 760 1.580507660891837E-2
110 14 -2.014626831147858
110 15 3.862576952199004E-1
110 16 7.987724028631928E-1
110 17 -1.6331304725375526E-1
110 18 -3.467864547690751E-2
110 19 -4.5833753271676425
110 28 -2.9975038818838673
110 29 -1.6807888295556124
110 30 -1.3937335135993019
110 31 1.7704153552133004
110 32 -7.241960019262647E-1
110 33 3.1302779171395603
110 34 1.9911988644876568
110 35 -4.416151623550683
110 36 5.045415958592688E-1
110 37 -1.737759678711074E1
110 38 3.434867643242413E-1
110 39 7.293756335529007E-2
110 43 1.1861930253818506E-1
110 44 2.1194858792251137E-2
110 45 -2.8059209810279087
110 46 3.668306804339567E-16
110 47 -2.0964984673078817
110 48 -1.895184600976626E-1
110 53 -2.813381035756607
110 60 2.7491379969362937
110 61 2.058458967901217
110 62 -5.722306528203547E-1
110 63 1.6865988037180686
110 73 2.8099772181030565
110 74 4.7863941729940604
110 75 1.1801113857051635
110 76 -1.4224639092565246E1
110 77 2.9510150296204385
110 78 2.4810264427493576
110 79 -1.7390819318118744
110 84 -3.090628438522355E-15
110 88 7.251856957981092E-1
110 89 -3.1268932042273145
110 90 1.942163215482581
110 91 -4.814279972252185
110 92 -1.1013157516381424
110 93 -1.4282330810099921E1
110 94 3.913244778259182
110 95 -2.7078000387826046E-1
110 96 -1.748630124694138E1
110 97 -2.9510150296204376
110 98 -2.481026442749357
110 99 -1.7390819318118762
110 103 4.771534936216154E-3
110 104 -3.0999995588969237E-2
110 105 4.913584251381722
110 106 -7.216449660063518E-16
110 107 4.49293380277993E-16
110 108 -2.6963667011474493
110 109 5.211253024273065E-1
110 110 8.655005982499037E1
110 111 3.391035673896694E-4
110 221 4.1206167186491505E-2
110 222 -3.942220171851696E-4
110 223 2.4290369081065752
110 702 1.4304744367738116
110 703 1.6639746609115056
110 729 -5.8600568735501115
110 730 -1.444224445485934
110 731 1.7621459309701302
110 735 -1.9042627856069148
110 736 -3.796076555160584
110 737 -7.488542148143763
110 744 7.078693908771602
110 747 1.8989802548860584
110 748 3.7273080083097847
110 749 -7.449606020253121
110 756 -1.2833186246262585E-1
110 757 1.3696654952632503E-2
110 758 -8.147763170092162
110 759 1.580507660891883E-2
110 760 -1.4453337690530306
111 48 -4.140145689961117
111 50 3.131146799508014E-2
111 51 -3.278135418383643
111 52 3.3278470613157625
111 53 -7.678623211650538
111 70 6.444363605246635E-2
111 71 -2.9838448706595138
111 72 -3.2527453881476074
111 73 -7.423003554697951
111 74 1.852208888319061
111 75 8.282295306964316E-1
111 76 3.0944767298865723
111 83 -1.2596172570148962
111 85 -1.2615096429296555
111 86 1.3553999249820805
111 87 -1.1168298636704117
111 91 1.837456307806788
111 92 1.0583027551816264
111 93 -3.097461556930374
111 103 -2.520840312915336
111 104 -2.3344193073136676E1
111 105 -2.1243153677627538E-2
111 109 3.065936377138881
111 110 3.391035673896694E-4
111 111 7.408753575071746E1
111 365 1.131807313533138
111 381 -2.6169620820482287
111 382 3.401045987028681
111 383 -2.9606052354248596E-2
111 426 -3.0511301603612013
111 427 1.181908241356673
111 625 5.059755634039542
111 626 -6.9052745688756625
111 627 3.8220637045234714E-2
111 702 -6.229466820320428E-1
111 703 -1.3583435410098024
111 730 -5.56955808939303E-1
111 731 1.2953930857145706
111 745 9.19645374275657E-1
111 746 3.0044946220652546
111 753 -3.8035639569765127
111 754 -5.407084823597167
111 755 -6.9228686861498995E-3
111 756 -1.1854425740727572
111 757 1.658892956855646
111 758 1.8732166672836104E-2
111 759 -2.758377183875049
111 760 6.332063485104294E-3
111 868 1.002828191226309
111 869 -5.12417019851981
111 870 -9.952192001719293E-1
111 871 7.781311573807582E-1
111 872 -3.1580927918450037
111 876 -4.836845288165145
111 877 -1.0125987198339113
111 878 9.903284599322464E-1
111 879 3.1534615947646225
111 883 4.760447543955837
111 884 -1.4218454066484401E1
111 885 2.1270998631941235E-2
112 112 5.854013506521578
112 113 -1.3393935982201852
112 114 1.988252791142367
112 118 -3.9116344688656135E-1
112 119 -3.2970948865339716E-1
112 120 2.5406087484444695E-1
112 121 9.004133662963835E-1
112 122 -1.2349352572374107E-2
112 123 3.3311841926539465E-1
112 125 -1.1639619032807083
112 126 6.6342423357563E-1
112 127 -6.517443276259438E-2
112 129 -1.1098525171730649
112 130 -4.262758487194368E-2
112 131 -1.4880952380800921E-1
112 145 7.309649527858615E-1
112 146 -3.2398718415876504E-1
112 147 -3.0422674091648155E-1
112 151 -1.0501940380607017E-1
112 152 8.893070017532217E-1
112 153 -1.991488145017138E-1
112 164 -4.7153945544574185
112 165 4.9533597314781325E-1
112 166 -1.85807257326341
113 112 -1.3393935982201852
113 113 5.810266758778735
113 114 -2.0904325159680734
113 118 -5.439858304126899E-2
113 119 4.34769269947608E-1
113 120 -3.7398227991971233E-1
113 121 -7.484935257173787E-2
113 122 7.129133662977893E-1
113 123 -7.085482473947543E-1
113 125 1.4259090024192056E-1
113 126 -2.706776762992407
113 127 1.918556966047531
113 129 -1.2596091820443187E-1
113 130 -1.3598525171715017
113 131 -2.1372271853086714E-13
113 145 -5.159647564384046E-1
113 146 1.3681071963738406E-1
113 147 4.934624787457231E-1
113 151 8.893070017532214E-1
113 152 -9.53858747580679E-2
113 153 -1.3396001871224228E-1
113 164 1.0786693064808863
113 165 -2.932744959739541
113 166 8.949036172017426E-1
114 112 1.988252791142367
114 113 -2.0904325159680734
114 114 7.572611358396206
114 118 -1.819688158573989E-1
114 119 -4.959903932412606E-1
114 120 9.187504401285901E-1
114 121 2.4831477663920892E-1
114 122 -2.7251855669039404E-1
114 123 2.212855502319401
114 125 4.5565890056543706E-1
114 126 1.9185569660475335
114 127 -2.5379461753425963
114 129 -7.440476190411395E-2
114 130 -2.1628101777802953E-13
114 131 -2.7078071610056194
114 145 2.1660659241157187E-1
114 146 1.7944090136291108E-1
114 147 -8.335159544675625E-1
114 151 -7.943869097336622E-1
114 152 4.6127807652910585E-1
114 153 1.6532766737616869
114 164 -1.8580725732634098
114 165 2.996655219603944E-1
114 166 -6.278224683790107
115 115 5.7478655069464475
115 116 -1.1487245675252804
115 117 -2.013403646001873
115 133 9.004133661821886E-1
115 134 -1.2349352572595458E-2
115 135 -3.3311841926354946E-1
115 142 -1.0766232812747503
115 143 -1.8059101399544383E-1
115 144 2.7765551852686254E-2
115 145 1.734047232676647E-2
115 146 -7.136291876075175E-1
115 147 4.570840487164485E-1
115 157 -9.953028711008697E-1
115 158 1.0374228382506607
115 159 8.051036642167727E-1
115 162 1.4919360804743735
115 163 -2.5359852297768304E-1
115 179 -6.681202904387903E-2
115 180 -1.7464848933349886E-1
115 181 -7.085482473900027E-1
115 189 -3.6266686321150807
115 190 -2.9941630769069816E-1
115 191 2.018715570847201
115 214 -9.00212531920823E-1
116 115 -1.1487245675252804
116 116 5.310460859023016
116 117 1.4162126564021347
116 133 -7.484935257308019E-2
116 134 7.129133661802315E-1
116 135 7.085482474152824E-1
116 142 -6.34827697415453E-1
116 143 -2.4393333315394803
116 144 -4.3137616066536866E-1
116 145 -4.052258375215747E-1
116 146 2.1652073756540458E-1
116 147 1.7503873535155517E-1
116 157 5.165895049175518E-1
116 158 -1.7969342287708543
116 159 -1.7990630024672019
116 162 -1.0318382337673544
116 163 -1.3371655876154587E-1
116 179 -2.8815155999431727E-2
116 180 3.7068797095714906E-1
116 181 3.3311841927781755E-1
116 189 2.8391702564289506E-1
116 190 -1.3424771396481132
116 191 -2.687623365526729E-1
116 214 1.491936080474373
117 115 -2.013403646001873
117 116 1.4162126564021347
117 117 6.139088419198677
117 133 -2.483147766280216E-1
117 134 2.7251855671092284E-1
117 135 2.212855502033228
117 142 -2.018053044050967E-1
117 143 -4.3137616066536816E-1
117 144 -2.560253665325588
117 145 9.14168097422833E-2
117 146 6.958720686875095E-1
117 147 -1.1924957069118964
117 157 2.842703308793991E-1
117 158 -1.7990630024672023
117 159 -2.792528592209165
117 162 -7.289546540028945E-1
117 163 5.875191120563297E-1
117 179 -2.72518556688158E-1
117 180 2.483147766462236E-1
117 181 8.376381293850046E-1
117 189 2.018715570847201
117 190 3.264757586886745E-1
117 191 -3.231823198226591
117 214 3.4163957225426606E-1
118 112 -3.9116344688656135E-1
118 113 -5.439858304126899E-2
118 114 -1.819688158573989E-1
118 118 9.114442436081223
118 119 5.541557121479364E-1
118 120 -2.2620701884892114E-1
118 151 -2.323690255648204
118 152 -1.701379594774731
118 153 5.40066079336189E-1
118 164 -2.5001606987878775
118 165 -1.5133660526656048E-1
118 166 1.4352716557770289
118 170 -1.7821234780077737
118 171 -1.951711880671823E-1
118 172 -3.383157012150003E-1
118 198 -5.114751413361927E-1
118 199 1.467682701338175
118 200 -4.658840652936144E-1
118 215 -1.6058294154146133
118 216 8.044755766363071E-2
118 217 -7.62962133898283E-1
119 112 -3.2970948865339716E-1
119 113 4.34769269947608E-1
119 114 -4.959903932412606E-1
119 118 5.541557121479364E-1
119 119 9.9358960054864
119 120 -3.6715380377943183
119 151 -1.7013795947747314
119 152 -4.656587440196914
119 153 1.083956205609328
119 164 -6.692468943819995E-1
119 165 -1.062743272459036
119 166 7.976327804699381E-1
119 170 3.227391010482574E-1
119 171 -8.39957326470367E-3
119 172 -3.140686221853225E-1
119 198 1.4676827013381752
119 199 -2.2730027908519688
119 200 5.685169309243182E-1
119 215 3.5575846327575844E-1
119 216 -2.3699321986613855
119 217 2.031491136217318
120 112 2.5406087484444695E-1
120 113 -3.7398227991971233E-1
120 114 9.187504401285901E-1
120 118 -2.2620701884892114E-1
120 119 -3.6715380377943183
120 120 1.1019776264155087E1
120 151 1.0455241172347531
120 152 1.9523775587433454
120 153 -2.2469849549757237
120 164 1.435271655777028
120 165 1.367845661800412E-1
120 166 -3.17005174112017
120 170 -8.437737391135637E-1
120 171 -5.216417610294432E-1
120 172 -2.918186872222974E-1
120 198 -9.019137559954602E-1
120 199 1.322963430702654
120 200 -5.776444096427447E-1
120 215 -7.629621338982826E-1
120 216 1.1550365231174333
120 217 -5.652026911322742
121 1 8.444072404000741E-1
121 2 5.198239150079921E-1
121 20 -1.7254692099224853
121 21 -5.55915935807598E-1
121 112 9.004133662963835E-1
121 113 -7.484935257173787E-2
121 114 2.4831477663920892E-1
121 121 2.198286356960425E1
121 122 2.4806935387571746E-1
121 123 5.066667405648231
121 124 6.199125316606363E-2
121 129 -2.0483182140149342E1
121 130 -4.3800874682884644E-1
121 131 -3.6500728902403954
121 132 2.1900437341442328E-1
121 148 -2.1026656101347947
121 149 1.8186172550053853E-1
121 150 -9.709485539291047E-1
121 151 5.836327839059156E-1
121 152 -1.9806860655615874E-1
121 153 -6.578687173183335E-1
122 1 -6.300874683266391E-2
122 2 -5.936089150787467E-1
122 20 1.5650437341505963E-1
122 21 1.2465787216647828
122 112 -1.2349352572374107E-2
122 113 7.129133662977893E-1
122 114 -2.7251855669039404E-1
122 121 2.4806935387571746E-1
122 122 2.15955147136876E1
122 123 2.149925403793084
122 124 4.2772008717599586E-1
122 129 -3.1300874683011887E-1
122 130 -2.0428557435059744E1
122 131 -2.493157443329566
122 132 -1.7527815624672851
122 148 1.8186172550053833E-1
122 149 -1.433593541675048
122 150 4.1764666467625117E-1
122 151 -1.9806860655615857E-1
122 152 8.787843720406916E-1
122 153 -4.548658750354118E-1
123 1 3.718219258558835E-1
123 2 1.9989180841138725
123 20 1.137269213282675E-1
123 21 -5.082418768411995
123 112 3.3311841926539465E-1
123 113 -7.085482473947543E-1
123 114 2.212855502319401
123 121 5.066667405648231
123 122 2.149925403793084
123 123 5.0957715799454974E1
123 124 -1.1872178301604236E-1
123 129 -2.60840622358433
123 130 -2.4931574433295665
123 131 -4.96704638631618E1
123 132 1.246578721664783
123 148 -1.7253950536911573
123 149 8.53676355380613E-1
123 150 -2.984399624114214
123 151 -1.5515333948222891
123 152 -9.297530070981176E-1
123 153 2.5677928697997654
124 1 1.7140382663304843E-1
124 2 1.2943814897140915
124 3 -9.13311212170245E-2
124 4 6.248799039713113E-2
124 5 -4.538924444586828E-1
124 20 -3.269155606056472E-1
124 21 -2.0425160000616636
124 22 2.1794370707043176E-1
124 23 -1.8659960356186867
124 24 1.3616773333744445
124 32 3.584049659137931E-1
124 33 -1.7856583732270659
124 34 4.4327829471678243E-1
124 121 6.199125316606363E-2
124 122 4.2772008717599586E-1
124 123 -1.1872178301604236E-1
124 124 1.3677112686842227E1
124 132 -1.1369445594300771E1
124 148 -3.914970709606651E-1
124 149 8.537792387311751E-1
124 150 -4.8420689026892916E-1
125 9 2.4217895004246748E-1
125 10 1.4954645003853984E-1
125 20 -4.640899876239436E-1
125 21 -7.682736587240613E-2
125 112 -1.1639619032807083
125 113 1.4259090024192056E-1
125 114 4.5565890056543706E-1
125 125 8.949935361779715E1
125 126 1.243571399872884
125 127 2.0847191847340763E1
125 128 1.5422251187496638E-1
125 129 -7.119985319064779E1
125 130 -1.46207287584943
125 131 -1.7127630861725724E1
125 132 -3.5484499577411366E-1
125 145 1.9742151526546274
125 146 -1.376169269276819E-1
125 147 5.753305062755227E-1
125 148 -3.414763023560073E-1
125 149 1.6736190809282603
125 150 9.124846198227591E-1
125 151 -1.2273539626389866E1
125 152 -1.1256810844355686E-1
125 153 -5.875069638773969E-1
125 154 -3.281644936430807
125 155 1.5293814736784292
125 156 -2.1283797213012594
125 157 -2.902828832209654
125 158 -3.016140237108202E-1
125 159 -2.4557127888694477
125 164 -8.835294155547263E-2
125 165 -2.3746684358908583
125 166 -5.641546223967899E-1
126 9 -3.4542740436117897E-1
126 10 7.569863737633498E-1
126 20 -4.590116624397265E-1
126 21 -1.4246613961885228
126 112 6.6342423357563E-1
126 113 -2.706776762992407
126 114 1.9185569660475335
126 125 1.243571399872884
126 126 8.234932735660882E1
126 127 7.203072065714454
126 128 -1.4982677927388142
126 129 -1.5870728758481565
126 130 -6.8856435318556E1
126 131 -8.54796837712816
126 132 -7.441032623565939E-1
126 145 5.748130563189752E-1
126 146 2.358337300681551E-1
126 147 -8.666027131769805E-1
126 148 1.6736190809282578
126 149 3.345338923546975E-1
126 150 7.747838042917543E-2
126 151 -1.125681084435561E-1
126 152 -5.95684140598091
126 153 7.566827306636899E-1
126 154 9.836181570967499E-1
126 155 -2.3288814745140276
126 156 1.2434637354321716
126 157 -2.6029744080902056E-1
126 158 -1.5349640619614464
126 159 5.084071781177088E-2
126 164 -2.3746684358908587
126 165 7.065751000685182E-1
126 166 -1.1678484833684815
127 9 4.045435884892013E-1
127 10 1.1908161073945162E-1
127 20 -5.976606992004787E-1
127 21 -3.451980714268588E-1
127 112 -6.517443276259438E-2
127 113 1.918556966047531
127 114 -2.5379461753425963
127 125 2.0847191847340763E1
127 126 7.203072065714454
127 127 1.805370974222036E2
127 128 7.569863737633518E-1
127 129 -1.816929752838178E1
127 130 -8.54796837712816
127 131 -1.6540844060413855E2
127 132 -1.4246613961885228
127 145 9.409977452496887E-1
127 146 -8.666027131769808E-1
127 147 9.062597756687655E-1
127 148 9.12484619822755E-1
127 149 7.747838042917905E-2
127 150 8.728691266311996E-1
127 151 -5.875069638774026E-1
127 152 7.566827306636863E-1
127 153 -7.64264039057007
127 154 -1.4523802936193166
127 155 1.243463735432172
127 156 -4.507681876601644
127 157 -1.669043260664047
127 158 5.084071781177116E-2
127 159 -4.226654237689436
127 164 -5.641546223967904E-1
127 165 -1.1678484833684808
127 166 2.233253420526155
128 9 3.7328832666371246
128 10 3.9498802744845802
128 11 5.69642781749522E-2
128 12 -5.1053447957533065
128 13 1.9663486862520299
128 20 -1.2900606873250475
128 21 -4.153589207833687
128 22 -7.478498855194526E-1
128 23 -9.607704673260291E-1
128 24 -1.5562026667138866
128 32 1.4748720052300641
128 33 3.8790186798691506E-2
128 34 -1.8067880570688304
128 40 -7.103412510418483E-1
128 41 -1.1542361404606398
128 42 1.8140439385854545
128 125 1.5422251187496638E-1
128 126 -1.4982677927388142
128 127 7.569863737633518E-1
128 128 6.1486011817525956E1
128 132 -4.285015535383253E1
128 148 -2.867024491308043
128 149 -5.908229975216937
128 150 1.4192736043565535
128 154 -6.958400414771378E-1
128 155 -5.9150121778916835
128 156 -2.7837236181989873
128 221 8.921742947544224E-1
128 222 1.8672146988952871
128 223 3.937706723734238E-1
129 20 9.718352248485673E-1
129 21 2.9822469860801804E-1
129 112 -1.1098525171730649
129 113 -1.2596091820443187E-1
129 114 -7.440476190411395E-2
129 121 -2.0483182140149342E1
129 122 -3.1300874683011887E-1
129 123 -2.60840622358433
129 125 -7.119985319064779E1
129 126 -1.5870728758481565
129 127 -1.816929752838178E1
129 129 9.298946713783752E1
129 130 1.9798222829259853
129 131 2.055388381526221E1
129 132 6.813744243582391E-2
129 148 7.445849365333E-1
129 149 2.4593855991194044E-1
129 150 2.632474814839288E-13
129 151 -1.9129994512491768
129 152 -2.678557443910422E-1
129 153 -2.675470903572374E-13
130 20 -1.5195890896664122E-2
130 21 3.561653490467741E-1
130 112 -4.262758487194368E-2
130 113 -1.3598525171715017
130 114 -2.1628101777802953E-13
130 121 -4.3800874682884644E-1
130 122 -2.0428557435059744E1
130 123 -2.4931574433295665
130 125 -1.46207287584943
130 126 -6.8856435318556E1
130 127 -8.54796837712816
130 129 1.9798222829259853
130 130 9.053207371008736E1
130 131 1.0684960471411168E1
130 132 6.382533573290529E-1
130 148 2.4593855991194158E-1
130 149 9.499689732840175E-1
130 150 1.911122189718896E-14
130 151 -2.678557443910426E-1
130 152 -1.4754507699131694
130 153 -1.768808405089911E-14
131 20 3.726294605119107E-1
131 21 2.0954784425733477
131 112 -1.4880952380800921E-1
131 113 -2.1372271853086714E-13
131 114 -2.7078071610056194
131 121 -3.6500728902403954
131 122 -2.493157443329566
131 123 -4.96704638631618E1
131 125 -1.7127630861725724E1
131 126 -8.54796837712816
131 127 -1.6540844060413855E2
131 129 2.055388381526221E1
131 130 1.0684960471411168E1
131 131 2.1635363058704803E2
131 132 3.561653490467712E-1
131 148 2.6739013886581324E-13
131 149 1.4718148013101457E-14
131 150 2.4863354111406926
131 151 -2.605055034395803E-13
131 152 -1.3173911821487665E-14
131 153 -3.1487328124560365
132 1 -5.144155606037382E-1
132 2 -2.042516000061663
132 9 -1.1858940206594433
132 10 -4.153589207833682
132 20 1.8720369146287004
132 21 5.434446533355311
132 22 -5.890018518968941E-2
132 23 2.685427220378509E-1
132 24 5.835760000170067E-1
132 32 4.887163956579009E-1
132 33 9.324513174704816E-1
132 34 3.814011717697185E-14
132 121 2.1900437341442328E-1
132 122 -1.7527815624672851
132 123 1.246578721664783
132 124 -1.1369445594300771E1
132 125 -3.5484499577411366E-1
132 126 -7.441032623565939E-1
132 127 -1.4246613961885228
132 128 -4.285015535383253E1
132 129 6.813744243582391E-2
132 130 6.382533573290529E-1
132 131 3.561653490467712E-1
132 132 5.690766855162891E1
132 148 -5.338403639098639E-1
132 149 -2.030430175509119
132 150 -4.224580239847909E-14
133 115 9.004133661821886E-1
133 116 -7.484935257308019E-2
133 117 -2.483147766280216E-1
133 133 2.1982863569710666E1
133 134 2.480693538801654E-1
133 135 -5.06666740568529
133 136 8.444072403138199E-1
133 137 6.199125316717556E-2
133 138 -5.198239150172573E-1
133 139 -1.7254692096289639
133 140 2.1900437341835075E-1
133 141 5.559159357748675E-1
133 142 -2.048318214030704E1
133 143 -4.3800874683670116E-1
133 144 3.650072890305847
133 160 1.818617255038004E-1
133 161 9.70948553901917E-1
133 162 -1.980686065597106E-1
133 163 6.578687173479358E-1
133 213 -2.102665610009094
133 214 5.836327837384284E-1
134 115 -1.2349352572595458E-2
134 116 7.129133661802315E-1
134 117 2.7251855671092284E-1
134 133 2.480693538801654E-1
134 134 2.1595514713787068E1
134 135 -2.149925403880885
134 136 -6.3008746833794E-2
134 137 4.277200870822677E-1
134 138 5.936089151234633E-1
134 139 1.5650437341786605E-1
134 140 -1.7527815621742533
134 141 -1.2465787216871393
134 142 -3.13008746835732E-1
134 143 -2.042855743521646E1
134 144 2.4931574433742734
134 160 -1.4335935415373482
134 161 -4.17646664678559E-1
134 162 8.78784371878498E-1
134 163 4.5486587503792286E-1
134 213 1.8186172550380064E-1
134 214 -1.9806860655971054E-1
135 115 -3.3311841926354946E-1
135 116 7.085482474152824E-1
135 117 2.212855502033228
135 133 -5.06666740568529
135 134 -2.149925403880885
135 135 5.095771579964927E1
135 136 -3.718219258464657E-1
135 137 1.1872178306075903E-1
135 138 1.9989180838962268
135 139 -1.1372692135165552E-1
135 140 -1.2465787216871382
135 141 -5.082418767691976
135 142 2.6084062236311016
135 143 2.493157443374273
135 144 -4.967046386352847E1
135 160 -8.53676355382919E-1
135 161 -2.984399623759212
135 162 9.297530071006265E-1
135 163 2.567792869400931
135 213 1.725395053663968
135 214 1.5515333948518897
136 54 7.140445270596677E-1
136 55 9.616887878305823E-2
136 56 -4.858706549686157E-1
136 64 -1.7632279019465833
136 65 3.4294370707531047E-1
136 66 7.13564345764095E-1
136 88 -2.8986800113688025
136 89 3.5840496592022186E-1
136 90 1.318722186606622
136 133 8.444072403138199E-1
136 134 -6.3008746833794E-2
136 135 -3.718219258464657E-1
136 136 1.4202613743502912E1
136 137 1.7140382663728376E-1
136 138 -4.695143640745366
136 139 -1.1523597794547515E1
136 140 -5.144155606143922E-1
136 141 3.0963201479893794
136 160 -3.914970709676881E-1
136 161 4.242295412003508E-1
136 213 4.2444019698649776E-1
137 54 -9.133112121891604E-2
137 55 6.2487990321695136E-2
137 56 4.538924445432798E-1
137 64 2.179437070743411E-1
137 65 -1.8659960352703182
137 66 -1.3616773333988694
137 88 3.5840496592022175E-1
137 89 -1.7856583730873634
137 90 -4.432782947207533E-1
137 133 6.199125316717556E-2
137 134 4.277200870822677E-1
137 135 1.1872178306075903E-1
137 136 1.7140382663728376E-1
137 137 1.3677112686960228E1
137 138 -1.2943814898616497
137 139 -3.2691556061241817E-1
137 140 -1.1369445594561483E1
137 141 2.042516000103967
137 160 8.53779238554973E-1
137 161 4.842068902732665E-1
137 213 -3.9149707096768793E-1
138 54 -4.0890623294524053E-1
138 55 -6.484177769452848E-2
138 56 1.7105807191785587
138 64 -3.0483273257002064E-2
138 65 -1.3616773333988688
138 66 -5.503063981534917
138 88 2.2107717947985117
138 89 -9.181654267834582E-1
138 90 -3.4706056996068306
138 133 -5.198239150172573E-1
138 134 5.936089151234633E-1
138 135 1.9989180838962268
138 136 -4.695143640745366
138 137 -1.2943814898616497
138 138 2.9736373571627738E1
138 139 2.129058243204875
138 140 2.0425160001039666
138 141 -2.7166503146361542E1
138 160 1.0029411125110752
138 161 2.694300452800759
138 213 1.3145270239614792
139 40 -1.4074392077279727
139 41 -4.694324057771109E-1
139 42 -6.078641346756023E-1
139 64 -1.3756469252105152
139 65 -1.0559602992226619E-1
139 66 4.003121428258451E-2
139 88 8.434540569780203E-1
139 89 1.7993192752875768
139 90 -1.5275526521492468
139 133 -1.7254692096289639
139 134 1.5650437341786605E-1
139 135 -1.1372692135165552E-1
139 136 -1.1523597794547515E1
139 137 -3.2691556061241817E-1
139 138 2.129058243204875
139 139 2.7270120399285066E1
139 140 2.8509947677786345
139 141 -1.5780691280139225
139 142 7.390671900649216E-1
139 143 -6.945208902419959E-1
139 144 -1.6112540683616133E-1
139 154 -3.4565017437351
139 155 -9.190536108054138E-1
139 156 1.2314006282303747
139 160 -3.0903962773449094
139 161 -2.062540302750179
139 213 -8.43737320363192
139 221 -9.266135618460221E-1
139 222 7.990963582200366E-1
139 223 2.6503884600589327
140 40 -8.239491562069311E-1
140 41 -1.2216457108857965
140 42 -1.8008522073725683
140 64 -6.619373097393773E-1
140 65 -5.3260906781552855
140 66 -9.872437425849228E-1
140 88 1.7993192752875777
140 89 1.1065285640886502
140 90 1.8336364336603894
140 133 2.1900437341835075E-1
140 134 -1.7527815621742533
140 135 -1.2465787216871382
140 136 -5.144155606143922E-1
140 137 -1.1369445594561483E1
140 138 2.0425160001039666
140 139 2.8509947677786345
140 140 3.1225977887011155E1
140 141 -1.1709680673343077
140 142 -1.5250413981020217E-1
140 143 -1.1594905883722337
140 144 3.2128036571025254E-1
140 154 -4.252123309887878E-1
140 155 -5.9981795051417786
140 156 2.8495292222780275
140 160 -7.388236177853443
140 161 -1.4449679224120677
140 213 -3.09039627734491
140 221 7.990963582200372E-1
140 222 1.88336336604447
140 223 -3.9635136036163154E-1
141 40 -1.3836946064866538
141 41 -1.8008522073725695
141 42 -4.117999170276829
141 64 1.2803750732932595E-1
141 65 -9.872437425849233E-1
141 66 -3.150543831010671E-1
141 88 -1.5275526521492462
141 89 1.8336364336603892
141 90 3.4808296149784
141 133 5.559159357748675E-1
141 134 -1.2465787216871393
141 135 -5.082418767691976
141 136 3.0963201479893794
141 137 2.042516000103967
141 138 -2.7166503146361542E1
141 139 -1.5780691280139225
141 140 -1.1709680673343077
141 141 4.4075917483099175E1
141 142 -3.5255683980961305E-1
141 143 3.2128036571025376E-1
141 144 2.047931689357677
141 154 4.7375147805710804E-1
141 155 2.849529222278029
141 156 -5.722209851325061
141 160 -1.4449679224120684
141 161 -6.881865694503427
141 213 -2.06254030275018
141 221 2.650388460058934
141 222 -3.963513603616304E-1
141 223 -3.186277741753525E-1
142 115 -1.0766232812747503
142 116 -6.34827697415453E-1
142 117 -2.018053044050967E-1
142 133 -2.048318214030704E1
142 134 -3.13008746835732E-1
142 135 2.6084062236311016
142 139 7.390671900649216E-1
142 140 -1.5250413981020217E-1
142 141 -3.5255683980961305E-1
142 142 3.317072257480892E1
142 143 1.5899713600982999
142 144 -5.70488115571713
142 154 -2.629491181527132
142 155 8.76192447834059E-1
142 156 2.0281938173971823
142 157 -1.6298227801111662
142 158 -1.2223169024528158
142 159 1.5430857160419182
142 160 1.6103226243084485
142 161 -8.927363612866663E-1
142 162 -1.7538289457266043
142 163 9.722939041483039E-1
142 213 7.394026994638003E-1
142 214 -8.830073081117554
143 115 -1.8059101399544383E-1
143 116 -2.4393333315394803
143 117 -4.3137616066536816E-1
143 133 -4.3800874683670116E-1
143 134 -2.042855743521646E1
143 135 2.493157443374273
143 139 -6.945208902419959E-1
143 140 -1.1594905883722337
143 141 3.2128036571025376E-1
143 142 1.5899713600982999
143 143 3.10161672852017E1
143 144 -2.9139137165875617
143 154 5.469557644150187E-1
143 155 -1.5314330646917707
143 156 -1.0948325524559226
143 157 -6.803001520210223E-1
143 158 -2.121166769953588
143 159 1.6189294497009619
143 160 1.4169669069677089
143 161 -7.580157070062096E-2
143 162 -4.753153002395878
143 163 8.255674162398612E-2
143 213 1.6103226243084479
143 214 -1.753828945726603
144 115 2.7765551852686254E-2
144 116 -4.3137616066536866E-1
144 117 -2.560253665325588
144 133 3.650072890305847
144 134 2.4931574433742734
144 135 -4.967046386352847E1
144 139 -1.6112540683616133E-1
144 140 3.2128036571025254E-1
144 141 2.047931689357677
144 142 -5.70488115571713
144 143 -2.9139137165875617
144 144 6.191235856225559E1
144 154 1.352194389696601
144 155 -1.0948325524559221
144 156 -4.573803685230583
144 157 7.564161878365183E-1
144 158 1.6189294497009623
144 159 -3.624620645705677
144 160 -7.580157070062192E-2
144 161 3.6046907205886143
144 162 8.255674162398743E-2
144 163 -7.1358391124115705
144 213 -8.927363612866649E-1
144 214 9.722939041483033E-1
145 112 7.309649527858615E-1
145 113 -5.159647564384046E-1
145 114 2.1660659241157187E-1
145 115 1.734047232676647E-2
145 116 -4.052258375215747E-1
145 117 9.14168097422833E-2
145 125 1.9742151526546274
145 126 5.748130563189752E-1
145 127 9.409977452496887E-1
145 145 1.5814897919287269E1
145 146 -5.036907091629502
145 147 -1.7406050577909407E-1
145 157 -8.244242230758607
145 158 3.3774198283498515
145 159 -1.3402977901096698
145 164 -8.36402633853006
145 165 8.571826585512043E-1
145 166 9.60991556905964E-1
145 189 -4.669222969855756E-1
145 190 2.5048962817457354E-1
145 191 -1.128093585056332
145 215 -1.4622276307802835
145 216 8.981925141948769E-1
145 217 4.324391766355879E-1
146 112 -3.2398718415876504E-1
146 113 1.3681071963738406E-1
146 114 1.7944090136291108E-1
146 115 -7.136291876075175E-1
146 116 2.1652073756540458E-1
146 117 6.958720686875095E-1
146 125 -1.376169269276819E-1
146 126 2.358337300681551E-1
146 127 -8.666027131769808E-1
146 145 -5.036907091629502
146 146 1.820386267273366E1
146 147 -5.51373794422229E-1
146 157 2.2940864950156747
146 158 -1.3916643640946308E1
146 159 1.2343342024331325
146 164 1.3750929476666445
146 165 -5.1147834265138945
146 166 -1.806729379561295
146 189 8.992460057258003E-1
146 190 6.126985505948641E-1
146 191 1.210818090147944
146 215 1.6437149419153474
146 216 -3.7429934313926433E-1
146 217 -9.575937547099203E-2
147 112 -3.0422674091648155E-1
147 113 4.934624787457231E-1
147 114 -8.335159544675625E-1
147 115 4.570840487164485E-1
147 116 1.7503873535155517E-1
147 117 -1.1924957069118964
147 125 5.753305062755227E-1
147 126 -8.666027131769805E-1
147 127 9.062597756687655E-1
147 145 -1.7406050577909407E-1
147 146 -5.51373794422229E-1
147 147 1.3189616886394317E1
147 157 -8.194644567816157E-1
147 158 1.234334202433132
147 159 -6.723114003899697
147 164 9.609915569059639E-1
147 165 -1.1458811652713983
147 166 -5.617479300917475
147 189 -1.1280935850563323
147 190 5.499698758580478E-1
147 191 -3.621458708328732E-1
147 215 4.3243917663558834E-1
147 216 1.1105238048214977E-1
147 217 6.328741749664206E-1
148 1 4.2444019717040254E-1
148 2 -1.3145270239029576
148 9 -6.070975434719033
148 10 2.0671162989408103
148 20 -3.085035002411185
148 21 -5.675899595487434E-13
148 32 -9.373815290099987E-1
148 33 -2.8251551946405035E-1
148 34 -3.669139263450028E-2
148 121 -2.1026656101347947
148 122 1.8186172550053833E-1
148 123 -1.7253950536911573
148 124 -3.914970709606651E-1
148 125 -3.414763023560073E-1
148 126 1.6736190809282578
148 127 9.12484619822755E-1
148 128 -2.867024491308043
148 129 7.445849365333E-1
148 130 2.4593855991194158E-1
148 131 2.6739013886581324E-13
148 132 -5.338403639098639E-1
148 148 2.7413138213744137E1
148 149 3.852718237234291
148 150 2.362266784977942
148 151 -7.169090388617023
148 152 -1.7794188404815976
148 153 -6.188273186465041E-1
148 154 2.7725009770270463
148 155 1.3696957446665725
148 156 1.8832183030008784
148 195 -3.2519101801437458
148 196 1.3274985873743517
148 197 4.9296653593996254E-1
148 198 -2.2811322879002316
148 199 -1.9984317268477918
148 200 -1.285048456619738
148 221 -6.114997589182867
148 222 -7.986039226439436E-1
148 223 -2.737563297187192
149 1 -3.914970709606647E-1
149 2 -1.0029411125067356
149 9 -2.867024491308043
149 10 1.4192736043565537
149 20 -5.33840363909865E-1
149 21 -4.3438383994205195E-14
149 32 -2.825155194640503E-1
149 33 -5.306533528820038
149 34 1.722049038750928E-2
149 121 1.8186172550053853E-1
149 122 -1.433593541675048
149 123 8.53676355380613E-1
149 124 8.537792387311751E-1
149 125 1.6736190809282603
149 126 3.345338923546975E-1
149 127 7.747838042917905E-2
149 128 -5.908229975216937
149 129 2.4593855991194044E-1
149 130 9.499689732840175E-1
149 131 1.4718148013101457E-14
149 132 -2.030430175509119
149 148 3.852718237234291
149 149 3.1053398378380596E1
149 150 2.581301370462948
149 151 -1.7794188404815983
149 152 -1.2747024479028934E1
149 153 -3.493814661910183
149 154 1.369695744666574
149 155 3.194884383350896
149 156 -8.81030499957276E-1
149 195 1.3274985873743514
149 196 -2.8719542232876427E-1
149 197 1.3664045758519594E-1
149 198 -1.9984317268477914
149 199 -1.715196226603458
149 200 -2.3466180520941285E-1
149 221 -7.986039226439459E-1
149 222 -6.958361516919084
149 223 5.268574209816351E-1
150 1 -4.2422954114183103E-1
150 2 2.6943004532312194
150 9 2.0671162989408116
150 10 -3.4189424261062773
150 20 -5.676339089091066E-13
150 21 -3.843504336619575
150 32 -7.791711036399675E-2
150 33 1.0433580166875454
150 34 -1.3468455981095495
150 121 -9.709485539291047E-1
150 122 4.1764666467625117E-1
150 123 -2.984399624114214
150 124 -4.8420689026892916E-1
150 125 9.124846198227591E-1
150 126 7.747838042917543E-2
150 127 8.728691266311996E-1
150 128 1.4192736043565535
150 129 2.632474814839288E-13
150 130 1.911122189718896E-14
150 131 2.4863354111406926
150 132 -4.224580239847909E-14
150 148 2.362266784977942
150 149 2.581301370462948
150 150 2.8104121082680518E1
150 151 -5.290472613131214E-1
150 152 -4.362236015044202
150 153 -9.502837002078985
150 154 1.8832183030008807
150 155 -8.810304999572742E-1
150 156 -5.267306568136192E-1
150 195 -4.871110041545501E-1
150 196 4.8632758848140545E-1
150 197 1.368969679998283E-1
150 198 -1.9982692386522936
150 199 -8.247696408050883E-1
150 200 -8.677280619787546E-1
150 221 -2.737563297187192
150 222 5.268574209816361E-1
150 223 -1.1803535335862481E1
151 112 -1.0501940380607017E-1
151 113 8.893070017532214E-1
151 114 -7.943869097336622E-1
151 118 -2.323690255648204
151 119 -1.7013795947747314
151 120 1.0455241172347531
151 121 5.836327839059156E-1
151 122 -1.9806860655615857E-1
151 123 -1.5515333948222891
151 125 -1.2273539626389866E1
151 126 -1.125681084435561E-1
151 127 -5.875069638774026E-1
151 129 -1.9129994512491768
151 130 -2.678557443910426E-1
151 131 -2.605055034395803E-13
151 148 -7.169090388617023
151 149 -1.7794188404815983
151 150 -5.290472613131214E-1
151 151 4.095095698938018E1
151 152 9.461469877331531E-1
151 153 1.6756469971081955
151 154 -2.8159841520101057
151 155 -1.0529242246482604
151 156 1.4164563798583658
151 157 3.4392593583234374
151 158 -3.730097851822487E-1
151 159 2.980962829731152
151 164 -4.70612678090029
151 165 3.167017749020391
151 166 3.8920074926383663E-1
151 198 -1.2413518809208547E1
151 199 5.659726224183501E-1
151 200 1.65395685440923
151 215 -3.653863415210079
151 216 -1.9290481408835374
151 217 -3.9415346208929596
151 221 2.3999831514298164
151 222 1.8458286844360186
151 223 -1.7577387769658372
152 112 8.893070017532217E-1
152 113 -9.53858747580679E-2
152 114 4.6127807652910585E-1
152 118 -1.701379594774731
152 119 -4.656587440196914
152 120 1.9523775587433454
152 121 -1.9806860655615874E-1
152 122 8.787843720406916E-1
152 123 -9.297530070981176E-1
152 125 -1.1256810844355686E-1
152 126 -5.95684140598091
152 127 7.566827306636863E-1
152 129 -2.678557443910422E-1
152 130 -1.4754507699131694
152 131 -1.3173911821487665E-14
152 148 -1.7794188404815976
152 149 -1.2747024479028934E1
152 150 -4.362236015044202
152 151 9.461469877331531E-1
152 152 3.61574980219705E1
152 153 2.8790294207882567
152 154 -1.0529242246482622
152 155 -2.6722345124430644
152 156 2.1400857217442395
152 157 -3.7300978518224875E-1
152 158 3.860478871143732
152 159 -1.9358361025369568
152 164 3.1670177490203906
152 165 -7.786234266474198
152 166 -8.858920466356572E-1
152 198 5.65972622418349E-1
152 199 -4.180850496854181
152 200 -1.8062530496274076E-1
152 215 -1.9290481408835367
152 216 -2.8364875662023143
152 217 -2.476144811096213
152 221 1.8458286844360203
152 222 1.5103355466968251
152 223 2.581033778905267
153 112 -1.991488145017138E-1
153 113 -1.3396001871224228E-1
153 114 1.6532766737616869
153 118 5.40066079336189E-1
153 119 1.083956205609328
153 120 -2.2469849549757237
153 121 -6.578687173183335E-1
153 122 -4.548658750354118E-1
153 123 2.5677928697997654
153 125 -5.875069638773969E-1
153 126 7.566827306636899E-1
153 127 -7.64264039057007
153 129 -2.675470903572374E-13
153 130 -1.768808405089911E-14
153 131 -3.1487328124560365
153 148 -6.188273186465041E-1
153 149 -3.493814661910183
153 150 -9.502837002078985
153 151 1.6756469971081955
153 152 2.8790294207882567
153 153 3.4623143353608604E1
153 154 1.416456379858364
153 155 2.1400857217442395
153 156 -3.827932396132068
153 157 2.9809628297311517
153 158 -1.9358361025369573
153 159 2.7480499674650103
153 164 3.89200749263837E-1
153 165 -8.858920466356565E-1
153 166 -4.929119845520263
153 198 7.602921769052742E-1
153 199 -6.027434178409648E-2
153 200 -4.3692354706958
153 215 -3.941534620892959
153 216 -2.4761448110962134
153 217 -7.371489114603116
153 221 -1.7577387769658368
153 222 2.5810337789052658
153 223 1.4467091223969892
154 9 -3.5320220157178133
154 10 -6.417238290245846E-1
154 40 -1.0956864313830847
154 41 -3.3417069903392005E-1
154 42 5.048039875823794E-2
154 125 -3.281644936430807
154 126 9.836181570967499E-1
154 127 -1.4523802936193166
154 128 -6.958400414771378E-1
154 139 -3.4565017437351
154 140 -4.252123309887878E-1
154 141 4.7375147805710804E-1
154 142 -2.629491181527132
154 143 5.469557644150187E-1
154 144 1.352194389696601
154 148 2.7725009770270463
154 149 1.369695744666574
154 150 1.8832183030008807
154 151 -2.8159841520101057
154 152 -1.0529242246482622
154 153 1.416456379858364
154 154 3.6758182087707205E1
154 155 -4.672139842229546
154 156 9.650517711474809E-1
154 157 -1.2423624518321404E1
154 158 4.908316012981714
154 159 -3.327344148537362E-1
154 160 1.350728445844013
154 161 -2.0237840829967304
154 162 -1.9887567668736115
154 163 -2.515237965415559
154 213 1.9037903531930704
154 214 -1.781832884034264
154 215 2.148296138324582
154 216 -3.6266754062413487
154 217 7.143937152187069E-1
154 221 -1.2565981693092194E1
154 222 3.6364051864885454
154 223 1.1031415017254739E-1
155 9 -1.222832094994205
155 10 -2.7837236181989886
155 40 -1.2091706990346416
155 41 -4.981737961567186
155 42 -3.281771555506874E-2
155 125 1.5293814736784292
155 126 -2.3288814745140276
155 127 1.243463735432172
155 128 -5.9150121778916835
155 139 -9.190536108054138E-1
155 140 -5.9981795051417786
155 141 2.849529222278029
155 142 8.76192447834059E-1
155 143 -1.5314330646917707
155 144 -1.0948325524559221
155 148 1.3696957446665725
155 149 3.194884383350896
155 150 -8.810304999572742E-1
155 151 -1.0529242246482604
155 152 -2.6722345124430644
155 153 2.1400857217442395
155 154 -4.672139842229546
155 155 4.159880356973072E1
155 156 -3.6046332193497854E-1
155 157 5.929149346315406
155 158 -1.725856792134401E1
155 159 7.10467750183979E-2
155 160 2.6431820619470825
155 161 9.069631978185141E-1
155 162 -9.274185138645541E-1
155 163 -1.8446225460906873
155 213 1.3507284458440125
155 214 -1.9887567668736104
155 215 -3.6266754062413495
155 216 2.0551612660371887
155 217 -2.149387876590721E-1
155 221 3.6364051864885463
155 222 -7.878566149607814
155 223 1.3403895606396731E-3
156 9 -1.3993729792071705
156 10 -5.496916449042687
156 40 5.048039873959979E-2
156 41 -3.2817715555067684E-2
156 42 -2.87727127827332E-1
156 125 -2.1283797213012594
156 126 1.2434637354321716
156 127 -4.507681876601644
156 128 -2.7837236181989873
156 139 1.2314006282303747
156 140 2.8495292222780275
156 141 -5.722209851325061
156 142 2.0281938173971823
156 143 -1.0948325524559226
156 144 -4.573803685230583
156 148 1.8832183030008784
156 149 -8.81030499957276E-1
156 150 -5.267306568136192E-1
156 151 1.4164563798583658
156 152 2.1400857217442395
156 153 -3.827932396132068
156 154 9.650517711474809E-1
156 155 -3.6046332193497854E-1
156 156 3.616901357075236E1
156 157 -3.327344148444156E-1
156 158 7.10467750183979E-2
156 159 -8.918730582361052
156 160 9.069631978185148E-1
156 161 -1.1078705988580158
156 162 -1.8446225460906875
156 163 -2.4877486459538147
156 213 -2.02378408299673
156 214 -2.515237965415561
156 215 7.143937152187068E-1
156 216 -2.1493878765907165E-1
156 217 4.850964641202572
156 221 1.1031415017254775E-1
156 222 1.3403895606397993E-3
156 223 -3.5626263418090596
157 115 -9.953028711008697E-1
157 116 5.165895049175518E-1
157 117 2.842703308793991E-1
157 125 -2.902828832209654
157 126 -2.6029744080902056E-1
157 127 -1.669043260664047
157 142 -1.6298227801111662
157 143 -6.803001520210223E-1
157 144 7.564161878365183E-1
157 145 -8.244242230758607
157 146 2.2940864950156747
157 147 -8.194644567816157E-1
157 151 3.4392593583234374
157 152 -3.7300978518224875E-1
157 153 2.9809628297311517
157 154 -1.2423624518321404E1
157 155 5.929149346315406
157 156 -3.327344148444156E-1
157 157 3.349518657794716E1
157 158 -7.793131979684178
157 159 1.687619084625741
157 162 2.4120047800629933
157 163 -2.705817313254556
157 164 1.9429651734638709
157 165 -3.9409407564905474E-1
157 166 3.3945466517902E-1
157 189 6.824226351166501E-1
157 190 -2.326537725367051
157 191 -8.440016424605463E-1
157 214 -3.7008229876141456
157 215 -9.663189524735275
157 216 6.7554103240095E-1
157 217 3.2233798975334993E-1
158 115 1.0374228382506607
158 116 -1.7969342287708543
158 117 -1.7990630024672023
158 125 -3.016140237108202E-1
158 126 -1.5349640619614464
158 127 5.084071781177116E-2
158 142 -1.2223169024528158
158 143 -2.121166769953588
158 144 1.6189294497009623
158 145 3.3774198283498515
158 146 -1.3916643640946308E1
158 147 1.234334202433132
158 151 -3.730097851822487E-1
158 152 3.860478871143732
158 153 -1.9358361025369573
158 154 4.908316012981714
158 155 -1.725856792134401E1
158 156 7.10467750183979E-2
158 157 -7.793131979684178
158 158 4.0106300185972E1
158 159 -2.1485497782684084
158 162 -1.9902754070445767
158 163 1.6149679758881428
158 164 -3.940940756490559E-1
158 165 -1.208344983957311
158 166 2.719766901444929
158 189 -2.326537725367052
158 190 -6.1464876132064E-1
158 191 -1.6319763447911133
158 214 2.412004780062994
158 215 6.755410324009519E-1
158 216 -3.5252332818170062
158 217 2.0553920576634652E-1
159 115 8.051036642167727E-1
159 116 -1.7990630024672019
159 117 -2.792528592209165
159 125 -2.4557127888694477
159 126 5.084071781177088E-2
159 127 -4.226654237689436
159 142 1.5430857160419182
159 143 1.6189294497009619
159 144 -3.624620645705677
159 145 -1.3402977901096698
159 146 1.2343342024331325
159 147 -6.723114003899697
159 151 2.980962829731152
159 152 -1.9358361025369568
159 153 2.7480499674650103
159 154 -3.327344148537362E-1
159 155 7.10467750183979E-2
159 156 -8.918730582361052
159 157 1.687619084625741
159 158 -2.1485497782684084
159 159 2.9930356275933185E1
159 162 1.614967975888142
159 163 -2.379385836698987
159 164 3.3945466517902056E-1
159 165 2.719766901444929
159 166 -1.0978825282965972
159 189 -8.440016424605463E-1
159 190 -1.6319763447911138
159 191 7.359882475825186E-1
159 214 -2.7058173132545544
159 215 3.223379897533496E-1
159 216 2.0553920576634693E-1
159 217 -3.6514780641200995
160 88 -2.5202381213862396E-1
160 89 -5.040593430773386
160 90 -1.3676762191592307E-2
160 133 1.818617255038004E-1
160 134 -1.4335935415373482
160 135 -8.53676355382919E-1
160 136 -3.914970709676881E-1
160 137 8.53779238554973E-1
160 138 1.0029411125110752
160 139 -3.0903962773449094
160 140 -7.388236177853443
160 141 -1.4449679224120684
160 142 1.6103226243084485
160 143 1.4169669069677089
160 144 -7.580157070062192E-2
160 154 1.350728445844013
160 155 2.6431820619470825
160 156 9.069631978185148E-1
160 160 2.9428474246834725E1
160 161 -2.5786652213191013
160 162 -1.1942220169786339E1
160 163 3.4838290142314956
160 207 1.3274985873743521
160 208 -2.871954223287638E-1
160 209 -1.3664045758519563E-1
160 210 -1.9984317268477916
160 211 -1.7151962266034575
160 212 2.3466180520941343E-1
160 213 3.3899425284382083
160 214 -1.3626397574021964
160 221 -7.653652667676141E-1
160 222 -6.53536748542175
160 223 -5.249668401790006E-1
161 88 1.2575220164703038E-1
161 89 -1.0398142884916277
161 90 -1.2101957739632474
161 133 9.70948553901917E-1
161 134 -4.17646664678559E-1
161 135 -2.984399623759212
161 136 4.242295412003508E-1
161 137 4.842068902732665E-1
161 138 2.694300452800759
161 139 -2.062540302750179
161 140 -1.4449679224120677
161 141 -6.881865694503427
161 142 -8.927363612866663E-1
161 143 -7.580157070062096E-2
161 144 3.6046907205886143
161 154 -2.0237840829967304
161 155 9.069631978185141E-1
161 156 -1.1078705988580158
161 160 -2.5786652213191013
161 161 2.74529728945715E1
161 162 4.352250367365513
161 163 -9.177738199055224
161 207 4.871110041545504E-1
161 208 -4.863275884814051E-1
161 209 1.3689696799982815E-1
161 210 1.998269238652294
161 211 8.247696408050891E-1
161 212 -8.677280619787548E-1
161 213 -1.8567591646175003
161 214 4.1144348752105064E-1
161 221 2.4180658845738816
161 222 -5.249668401790006E-1
161 223 -1.165906308384282E1
162 115 1.4919360804743735
162 116 -1.0318382337673544
162 117 -7.289546540028945E-1
162 133 -1.980686065597106E-1
162 134 8.78784371878498E-1
162 135 9.297530071006265E-1
162 142 -1.7538289457266043
162 143 -4.753153002395878
162 144 8.255674162398743E-2
162 154 -1.9887567668736115
162 155 -9.274185138645541E-1
162 156 -1.8446225460906875
162 157 2.4120047800629933
162 158 -1.9902754070445767
162 159 1.614967975888142
162 160 -1.1942220169786339E1
162 161 4.352250367365513
162 162 3.5074363052414725E1
162 163 -3.7590132053852736
162 179 -4.790749726102841E-1
162 180 -7.095654414831964E-1
162 181 -1.4924166998333706
162 189 -2.6893062668381545E-1
162 190 -1.1043726106953818E1
162 191 7.505609409305015E-1
162 210 8.070948922313398E-2
162 211 -5.339736255912786
162 212 1.3310340329691306E-1
162 213 -1.3626397574021962
162 214 1.6795363637199796
162 215 -1.4469535700473717
162 216 5.206331020250612E-1
162 217 2.6580358527172394
162 221 1.8340665324231136
162 222 1.2641526048902108
162 223 -2.6962211836106977
163 115 -2.5359852297768304E-1
163 116 -1.3371655876154587E-1
163 117 5.875191120563297E-1
163 133 6.578687173479358E-1
163 134 4.5486587503792286E-1
163 135 2.567792869400931
163 142 9.722939041483039E-1
163 143 8.255674162398612E-2
163 144 -7.1358391124115705
163 154 -2.515237965415559
163 155 -1.8446225460906873
163 156 -2.4877486459538147
163 157 -2.705817313254556
163 158 1.6149679758881428
163 159 -2.379385836698987
163 160 3.4838290142314956
163 161 -9.177738199055224
163 162 -3.7590132053852736
163 163 3.255832163597703E1
163 179 -4.6621099612329814E-1
163 180 -6.239953466993537E-1
163 181 7.404949083161146E-1
163 189 6.085633236563366E-1
163 190 7.505609409305009E-1
163 191 -7.096314868844707
163 210 -7.67922682705882E-1
163 211 1.2752440118269107E-2
163 212 -5.740161889470661
163 213 5.01223544854434E-1
163 214 3.232731399100708E-2
163 215 2.240304024162062
163 216 2.658035852717239
163 217 -4.070133571876384
163 221 1.696206652316899
163 222 -2.696221183610697
163 223 1.633193598560946
164 112 -4.7153945544574185
164 113 1.0786693064808863
164 114 -1.8580725732634098
164 118 -2.5001606987878775
164 119 -6.692468943819995E-1
164 120 1.435271655777028
164 125 -8.835294155547263E-2
164 126 -2.3746684358908587
164 127 -5.641546223967904E-1
164 145 -8.36402633853006
164 146 1.3750929476666445
164 147 9.609915569059639E-1
164 151 -4.70612678090029
164 152 3.1670177490203906
164 153 3.89200749263837E-1
164 157 1.9429651734638709
164 158 -3.940940756490559E-1
164 159 3.3945466517902056E-1
164 164 2.491145187764474E1
164 165 -3.32645227151064
164 166 1.613656540835635
164 215 -6.48035573687749
164 216 1.1436816742646325
164 217 -2.316347972301285
165 112 4.9533597314781325E-1
165 113 -2.932744959739541
165 114 2.996655219603944E-1
165 118 -1.5133660526656048E-1
165 119 -1.062743272459036
165 120 1.367845661800412E-1
165 125 -2.3746684358908583
165 126 7.065751000685182E-1
165 127 -1.1678484833684808
165 145 8.571826585512043E-1
165 146 -5.1147834265138945
165 147 -1.1458811652713983
165 151 3.167017749020391
165 152 -7.786234266474198
165 153 -8.858920466356565E-1
165 157 -3.9409407564905474E-1
165 158 -1.208344983957311
165 159 2.719766901444929
165 164 -3.32645227151064
165 165 2.1538152220875524E1
165 166 -7.962823463511385E-1
165 215 1.7270150075977044
165 216 -4.139876411800062
165 217 8.396870520413094E-1
166 112 -1.85807257326341
166 113 8.949036172017426E-1
166 114 -6.278224683790107
166 118 1.4352716557770289
166 119 7.976327804699381E-1
166 120 -3.17005174112017
166 125 -5.641546223967899E-1
166 126 -1.1678484833684815
166 127 2.233253420526155
166 145 9.60991556905964E-1
166 146 -1.806729379561295
166 147 -5.617479300917475
166 151 3.8920074926383663E-1
166 152 -8.858920466356572E-1
166 153 -4.929119845520263
166 157 3.3945466517902E-1
166 158 2.719766901444929
166 159 -1.0978825282965972
166 164 1.613656540835635
166 165 -7.962823463511385E-1
166 166 2.4297706493510177E1
166 215 -2.316347972301285
166 216 2.444489567999627E-1
166 217 -5.438201814391722
167 167 1.1702066861687364E1
167 168 -8.047289465580781E-2
167 169 5.968645684757852E-1
167 170 -1.7125973910116838
167 171 2.815680679499753E-1
167 172 -1.0150853078969926
167 182 -1.1495307407691113
167 183 -1.2057908659231527
167 184 -3.170452342874513E-1
167 185 6.420452307736908E-1
167 192 -1.8569519148753262
167 193 -2.224345052762435
167 194 5.220708036630454E-1
167 218 -7.665432398985093E-1
167 219 -1.2607272020621763E-1
167 220 1.2756200711948211
167 390 -2.0858509402471612
167 391 -1.6887937192835367E-1
167 392 2.7307357840201224E-1
167 409 4.9410019627039464E-1
167 410 -1.79204535827231
167 420 -2.924801768962418
167 421 2.1411470096198952
167 422 -5.025435863400523E-1
168 167 -8.047289465580781E-2
168 168 1.42040265247425E1
168 169 -4.408861643574445
168 170 -1.7091917694755543E-1
168 171 -1.319869309626112E-1
168 172 -5.415366989745934E-1
168 182 1.2232668629349495
168 183 -4.4789132272132853E-1
168 184 -3.5521808763449134
168 185 2.914554085782458
168 192 -2.224345052762435
168 193 -4.86130021949819
168 194 1.7017080196271223E-1
168 218 -8.552393868707728E-1
168 219 1.1885542895158356
168 220 -3.696715083585306E-2
168 390 4.1445396140305485E-1
168 391 -1.2742869950390534E-2
168 392 -4.673107644100903E-1
168 409 2.669024386702698E-1
168 410 7.973816533528153E-1
168 420 2.1411470096198957
168 421 -7.101272356172501
168 422 1.5725697166969963
169 167 5.968645684757852E-1
169 168 -4.408861643574445
169 169 1.1985762209023452E1
169 170 -4.8936590561425625E-1
169 171 -2.818972970776532E-1
169 172 -4.6695551090112164E-1
169 182 -1.79204535827231
169 183 6.420452307736911E-1
169 184 2.035417181020451
169 185 -5.225142825824514
169 192 1.068217960469631
169 193 1.0212635588555357
169 194 -1.2841090913568747
169 218 1.2756200711948213
169 219 -4.089909603606997E-1
169 220 5.611549649257184E-1
169 390 -2.730735784045742E-1
169 391 -4.255463784454007E-1
169 392 -6.22085363755962E-2
169 409 -2.1070727598877848E-2
169 410 -2.032282879939047
169 420 -1.028262988622788
169 421 2.4896862671810895
169 422 -3.476218329552017
170 118 -1.7821234780077737
170 119 3.227391010482574E-1
170 120 -8.437737391135637E-1
170 167 -1.7125973910116838
170 168 -1.7091917694755543E-1
170 169 -4.8936590561425625E-1
170 170 1.0899481245829776E1
170 171 -1.8074254830289063E-1
170 172 1.5312713207478528
170 192 -1.0124190385137886
170 193 1.3286542072986243
170 194 -5.06828971971771E-1
170 198 -2.20888433170899
170 199 -1.381913518687881
170 200 5.271452904623602E-1
170 215 7.704339844624695E-1
170 216 -5.683972377112422E-1
170 217 1.5108580221408543
170 218 -4.953890991050012
170 219 6.505791733026873E-1
170 220 -1.7293060166514764
171 118 -1.951711880671823E-1
171 119 -8.39957326470367E-3
171 120 -5.216417610294432E-1
171 167 2.815680679499753E-1
171 168 -1.319869309626112E-1
171 169 -2.818972970776532E-1
171 170 -1.8074254830289063E-1
171 171 1.2478342959002427E1
171 172 -4.590800450115658
171 192 1.328654207298624
171 193 -2.7353131419745207
171 194 8.770057150448426E-1
171 198 -1.3819135186878804
171 199 -5.309757267284246
171 200 9.104998721837326E-1
171 215 -1.0208844826087733
171 216 1.5272811310390846
171 217 2.5526675689986E-1
171 218 1.1684894624181268
171 219 -5.820167176555432
171 220 3.3515671640943188
172 118 -3.383157012150003E-1
172 119 -3.140686221853225E-1
172 120 -2.918186872222974E-1
172 167 -1.0150853078969926
172 168 -5.415366989745934E-1
172 169 -4.6695551090112164E-1
172 170 1.5312713207478528
172 171 -4.590800450115658
172 172 1.4210961221129912E1
172 192 -1.0122870098703338
172 193 1.794298647632936
172 194 -1.011611027475663
172 198 1.0528646927450964
172 199 1.7790976074175273
172 200 -2.2097247319957622
172 215 1.5108580221408547
172 216 -3.5369157643699434E-1
172 217 3.506058974113405E-1
172 218 -1.7293060166514769
172 219 2.2267010926621045
172 220 -1.0581457160946407E1
173 173 1.0996482343418645E1
173 174 1.5507392943394427E-1
173 175 7.047646326432782E-1
173 176 -1.3507076858122624
173 177 2.72241993819307E-1
173 178 6.571492528478062E-2
173 182 9.275064481514639E-2
173 183 -4.458828998161421
173 184 -8.340709017553232E-1
173 185 -1.9115150488209807
173 204 -4.013389576869865E-1
173 205 -1.334607031667768
173 206 -5.220708036630437E-1
173 403 -2.085850940264609
173 404 -1.688793719294691E-1
173 405 -2.7307357840201263E-1
173 409 6.255531763174478E-1
173 410 1.433636286617927
173 437 -2.7925064063085125
173 438 1.284688205781861
173 439 5.025435863400513E-1
174 173 1.5507392943394427E-1
174 174 1.23110308745398E1
174 175 4.515727866289874
174 176 -1.6525800618280456E-1
174 177 1.775499260269539E-1
174 178 4.0619376452360995E-1
174 182 1.0630531763195588
174 183 -1.4174042350905802
174 184 -4.860894354247813
174 185 -2.6812056015009764
174 204 -1.3346070316677678
174 205 -1.6618392837289564
174 206 -1.7017080196271028E-1
174 403 4.1445396140579E-1
174 404 -1.274286995415308E-2
174 405 4.673107644100907E-1
174 409 3.942996618804009E-1
174 410 -9.652862750628941E-1
174 437 1.2846882057818596
174 438 -6.347403954516233
174 439 -1.5725697166969936
175 173 7.047646326432782E-1
175 174 4.515727866289874
175 175 1.3124609695187207E1
175 176 -4.600044769979552E-1
175 177 5.048579340560102E-1
175 178 3.114239427941864E-1
175 182 1.4336362866179257
175 183 -1.9115150488209804
175 184 -1.788348458643465
175 185 -8.336498177802733
175 204 -1.0682179604696296
175 205 -1.0212635588555323
175 206 4.695063665512935E-1
175 403 2.730735784045744E-1
175 404 4.255463784454012E-1
175 405 -6.2208536385202406E-2
175 409 -1.4683389411120173E-1
175 410 -1.8760541261659671
175 437 1.028262988622787
175 438 -2.4896862671810864
175 439 -3.6307791641787848
176 173 -1.3507076858122624
176 174 -1.6525800618280456E-1
176 175 -4.600044769979552E-1
176 176 1.0671747496114847E1
176 177 2.641272369174327E-1
176 178 1.296041034828039
176 179 -6.809633323587359E-1
176 180 1.817539442342183E-1
176 181 -1.2636450947349281E-1
176 183 1.1131230107094464E-2
176 184 4.9258600206249703E-1
176 185 1.3800134309915868
176 186 -6.334034439730905
176 187 -7.388790030935939E-1
176 188 -2.070020146486957
176 204 -2.173788658915808
176 205 8.564310887595064E-1
176 206 4.9058890478367234E-1
176 210 -1.4338460940423156E-1
176 211 -8.907612626972558E-1
176 212 -5.102542376448935E-1
177 173 2.72241993819307E-1
177 174 1.775499260269539E-1
177 175 5.048579340560102E-1
177 176 2.641272369174327E-1
177 177 1.1733500156588347E1
177 178 4.666788157064112
177 179 -1.099127224339162E-1
177 180 3.179280775214939E-1
177 181 3.781327569580135E-1
177 183 7.842526687306319E-1
177 184 1.8417595260972766E-1
177 185 -7.705261831205423E-1
177 186 -1.1763790030957066
177 187 -6.593601523484801
177 188 -3.010877392001964
177 204 8.564310887595068E-1
177 205 -4.770399930770577
177 206 -1.354247569711803
177 210 -8.907612626972556E-1
177 211 -1.0491526584911446
177 212 -4.1412770324382675E-1
178 173 6.571492528478062E-2
178 174 4.0619376452360995E-1
178 175 3.114239427941864E-1
178 176 1.296041034828039
178 177 4.666788157064112
178 178 1.6182894930395413E1
178 179 -6.31822547372056E-1
178 180 5.513780704959044E-1
178 181 6.423051799204813E-1
178 183 1.3800134309915881
178 184 -2.6478564070339106E-2
178 185 -1.8840335702843012
178 186 -2.070020146486958
178 187 -2.0436154872357695
178 188 -1.2967293630999794E1
178 204 9.960469426822355E-1
178 205 -2.271540502299897
178 206 -2.9690061295076204
178 210 -1.0359736399276294
178 211 -1.2827254384776208
178 212 6.837092776816336E-1
179 115 -6.681202904387903E-2
179 116 -2.8815155999431727E-2
179 117 -2.72518556688158E-1
179 162 -4.790749726102841E-1
179 163 -4.6621099612329814E-1
179 176 -6.809633323587359E-1
179 177 -1.099127224339162E-1
179 178 -6.31822547372056E-1
179 179 1.2438968717791345E1
179 180 5.511553471181726E-1
179 181 2.295205933371261
179 186 -1.1790633097732803E-1
179 187 3.466230278850928E-1
179 188 1.3268273494831553
179 189 -1.018702447833529E1
179 190 -6.932460557701854E-1
179 191 -2.6536546989663097
179 210 -1.296196992326477
179 211 4.132705318105522E-1
179 212 4.0217351629540543E-1
179 214 -9.006555474963465E-2
180 115 -1.7464848933349886E-1
180 116 3.7068797095714906E-1
180 117 2.483147766462236E-1
180 162 -7.095654414831964E-1
180 163 -6.239953466993537E-1
180 176 1.817539442342183E-1
180 177 3.179280775214939E-1
180 178 5.513780704959044E-1
180 179 5.511553471181726E-1
180 180 1.3121969906665129E1
180 181 4.929326411089779
180 186 4.9245636121916014E-1
180 187 -1.444436385140187E-1
180 188 -6.221796623255351E-1
180 189 -9.8491272243832E-1
180 190 -1.0133949863261911E1
180 191 -3.5175454372797126
180 210 4.1327053181055234E-1
180 211 -2.8226270118846473
180 212 -9.652988119273055E-1
180 214 -4.7907497261028437E-1
181 115 -7.085482473900027E-1
181 116 3.3311841927781755E-1
181 117 8.376381293850046E-1
181 162 -1.4924166998333706
181 163 7.404949083161146E-1
181 176 -1.2636450947349281E-1
181 177 3.781327569580135E-1
181 178 6.423051799204813E-1
181 179 2.295205933371261
181 180 4.929326411089779
181 181 2.390929757236966E1
181 186 1.3268273494831555
181 187 4.746319482120637E-2
181 188 -1.9400309802554054
181 189 -2.65365469896631
181 190 -2.475878770607804
181 191 -2.2177030890214063E1
181 210 8.382032069972517E-1
181 211 -1.7197453117056418
181 212 -2.0126739195217995
181 214 -9.716690340218624E-1
182 167 -1.1495307407691113
182 168 1.2232668629349495
182 169 -1.79204535827231
182 173 9.275064481514639E-2
182 174 1.0630531763195588
182 175 1.4336362866179257
182 182 3.354952115271244E1
182 183 -1.2014950939772316E1
182 184 -2.578488579823128
182 185 2.0480518380211338E-1
182 390 2.7118283602906934E-1
182 391 -1.1244468236806193
182 392 1.4336362866172194
182 403 -9.822505614839494E-1
182 404 -1.146524803731863
182 405 -1.79204535827063
182 406 -1.2773287752465013E1
182 407 3.6923447535096554
182 408 2.048051838022509E-1
182 409 -1.129204585528563
182 410 3.072077757034292E-1
182 420 -3.4075012239259155
182 421 -8.749999999987611E-1
182 422 1.8520360193984552E-15
182 437 -3.585933415140344
182 438 8.749999999987685E-1
182 439 -1.4681225848744534E-15
183 167 -1.2057908659231527
183 168 -4.4789132272132853E-1
183 169 6.420452307736911E-1
183 173 -4.458828998161421
183 174 -1.4174042350905802
183 175 -1.9115150488209804
183 176 1.1131230107094464E-2
183 177 7.842526687306319E-1
183 178 1.3800134309915881
183 182 -1.2014950939772316E1
183 183 3.9875348965763294E1
183 184 5.528165008940655
183 185 1.7150894890772745
183 186 -2.2536639799976346
183 187 -1.2880126180741802E-1
183 188 2.3024092964561002E-1
183 192 -1.5412469060707632
183 193 -3.061217971996494
183 194 -1.6384414704197576
183 204 -5.761203548907683
183 205 -4.162841348866028
183 206 1.638441470419756
183 218 -1.3963536342036349E1
183 219 -3.0296131106706237E-1
183 220 -2.260679215469296
183 409 -3.7451552464897917
183 410 2.0480518380211277E-1
183 420 2.9125050694754355
183 421 3.5262842698778423
183 422 1.5771582068482095
183 437 -1.5997636844765084
183 438 3.4275707504895747
183 439 -1.5771582068482077
184 167 -3.170452342874513E-1
184 168 -3.5521808763449134
184 169 2.035417181020451
184 173 -8.340709017553232E-1
184 174 -4.860894354247813
184 175 -1.788348458643465
184 176 4.9258600206249703E-1
184 177 1.8417595260972766E-1
184 178 -2.6478564070339106E-2
184 182 -2.578488579823128
184 183 5.528165008940655
184 184 3.591065939299299E1
184 185 -3.030422080843568E-1
184 186 -8.429806835765545E-1
184 187 7.387661367161045E-1
184 188 7.371344644495117E-1
184 192 -3.061217971996494
184 193 -7.160823873098801
184 194 -2.5121175563919524
184 204 -4.162841348866027
184 205 -8.863788325959016
184 206 2.5121175563919476
184 218 -1.177961311065594
184 219 -8.250948502187473
184 220 -7.506279127916557E-1
184 409 -5.27877125834971
184 410 9.594549811986114E-2
184 420 3.526284269877844
184 421 4.752050969443518
184 422 -1.8584925085951975
184 437 3.4275707504895765
184 438 -3.618245261574609
184 439 1.8584925085951958
185 167 6.420452307736908E-1
185 168 2.914554085782458
185 169 -5.225142825824514
185 173 -1.9115150488209807
185 174 -2.6812056015009764
185 175 -8.336498177802733
185 176 1.3800134309915868
185 177 -7.705261831205423E-1
185 178 -1.8840335702843012
185 182 2.0480518380211338E-1
185 183 1.7150894890772745
185 184 -3.030422080843568E-1
185 185 3.269733858378568E1
185 186 2.3024092964560966E-1
185 187 7.508547025450181E-1
185 188 8.151771707095289E-1
185 192 -1.6384414704197583
185 193 -2.5121175563919533
185 194 -3.1311735710384996
185 204 1.6384414704197565
185 205 2.512117556391947
185 206 -5.253348497317989
185 218 -2.260679215469295
185 219 -6.580293741452803E-3
185 220 -8.036027446449904
185 409 9.594549811986182E-2
185 410 -4.0006315187394454
185 420 1.5771582068482102
185 421 -1.8584925085951975
185 422 2.810620553176245
185 437 -1.5771582068482082
185 438 1.858492508595195
185 439 -4.562807002140686E-1
186 176 -6.334034439730905
186 177 -1.1763790030957066
186 178 -2.070020146486958
186 179 -1.1790633097732803E-1
186 180 4.9245636121916014E-1
186 181 1.3268273494831555
186 183 -2.2536639799976346
186 184 -8.429806835765545E-1
186 185 2.3024092964560966E-1
186 186 2.2857807710949064E1
186 187 2.019225509843648
186 188 1.2857213106308047
186 189 -2.0991662173620966
186 190 2.999084311614486E-2
186 191 6.51841096419317E-2
186 204 6.15786149834578E-1
186 205 2.1337685058408975
186 206 2.7931205009520475E-2
186 210 -4.956724890151538
186 211 -2.2193009496181357
186 212 -2.9050831724210063E-2
186 215 -2.03395469056984
186 216 -1.3363688056874317
186 217 -1.718218698444943
186 218 -5.6781433119943
186 219 8.995882219579776E-1
186 220 8.813847722450889E-1
187 176 -7.388790030935939E-1
187 177 -6.593601523484801
187 178 -2.0436154872357695
187 179 3.466230278850928E-1
187 180 -1.444436385140187E-1
187 181 4.746319482120637E-2
187 183 -1.2880126180741802E-1
187 184 7.387661367161045E-1
187 185 7.508547025450181E-1
187 186 2.019225509843648
187 187 2.8891475245436997E1
187 188 7.813971629722769
187 189 -6.187655344350814E-1
187 190 3.840395919490404E-1
187 191 3.744325080816046E-1
187 204 2.133768505840897
187 205 -8.23844160118875E-2
187 206 8.20805722503136E-1
187 210 -2.219300949618137
187 211 -1.0704950332647718E1
187 212 -8.537078480710528E-1
187 215 -1.9047148941225007
187 216 -1.7336383956978703
187 217 -1.3949420605802274
187 218 1.1108445995070928
187 219 -1.0755262667745848E1
187 220 -5.515262361786684
188 176 -2.070020146486957
188 177 -3.010877392001964
188 178 -1.2967293630999794E1
188 179 1.3268273494831553
188 180 -6.221796623255351E-1
188 181 -1.9400309802554054
188 183 2.3024092964561002E-1
188 184 7.371344644495117E-1
188 185 8.151771707095289E-1
188 186 1.2857213106308047
188 187 7.813971629722769
188 188 3.1545826608461198E1
188 189 6.518410964193297E-2
188 190 4.4004262713015385E-1
188 191 6.864104064901113E-1
188 204 2.7931205009520163E-2
188 205 8.20805722503136E-1
188 206 1.9108908194439251
188 210 -2.90508317242105E-2
188 211 -8.537078480710527E-1
188 212 -6.303744032692598
188 215 -1.7182186984449448
188 216 -7.115789653379805E-1
188 217 -2.4515167899999684
188 218 8.813847722450889E-1
188 219 -4.613610576069037
188 220 -1.1295719571157E1
189 115 -3.6266686321150807
189 116 2.8391702564289506E-1
189 117 2.018715570847201
189 145 -4.669222969855756E-1
189 146 8.992460057258003E-1
189 147 -1.1280935850563323
189 157 6.824226351166501E-1
189 158 -2.326537725367052
189 159 -8.440016424605463E-1
189 162 -2.6893062668381545E-1
189 163 6.085633236563366E-1
189 179 -1.018702447833529E1
189 180 -9.8491272243832E-1
189 181 -2.65365469896631
189 186 -2.0991662173620966
189 187 -6.187655344350814E-1
189 188 6.518410964193297E-2
189 189 2.6158465058588533E1
189 190 2.9752735849943313E-3
189 191 3.504976892468888E-1
189 210 7.176727353423713E-1
189 211 1.9150954021858153
189 212 8.560962386067034E-2
189 214 -6.184408794687268
189 215 -4.994370009562242
189 216 1.0979129017847629
189 217 1.4971796092301588
190 115 -2.9941630769069816E-1
190 116 -1.3424771396481132
190 117 3.264757586886745E-1
190 145 2.5048962817457354E-1
190 146 6.126985505948641E-1
190 147 5.499698758580478E-1
190 157 -2.326537725367051
190 158 -6.1464876132064E-1
190 159 -1.6319763447911138
190 162 -1.1043726106953818E1
190 163 7.505609409305009E-1
190 179 -6.932460557701854E-1
190 180 -1.0133949863261911E1
190 181 -2.475878770607804
190 186 2.999084311614486E-2
190 187 3.840395919490404E-1
190 188 4.4004262713015385E-1
190 189 2.9752735849943313E-3
190 190 2.9371046584595174E1
190 191 5.508280733032401
190 210 1.915095402185816
190 211 -3.374812432903427E-1
190 212 5.331667694207054E-1
190 214 -2.6893062668381673E-1
190 215 1.389579568450222
190 216 -6.895501612664257
190 217 -4.000641589661565
191 115 2.018715570847201
191 116 -2.687623365526729E-1
191 117 -3.231823198226591
191 145 -1.128093585056332
191 146 1.210818090147944
191 147 -3.621458708328732E-1
191 157 -8.440016424605463E-1
191 158 -1.6319763447911133
191 159 7.359882475825186E-1
191 162 7.505609409305015E-1
191 163 -7.096314868844707
191 179 -2.6536546989663097
191 180 -3.5175454372797126
191 181 -2.2177030890214063E1
191 186 6.51841096419317E-2
191 187 3.744325080816046E-1
191 188 6.864104064901113E-1
191 189 3.504976892468888E-1
191 190 5.508280733032401
191 191 3.931527113280324E1
191 210 8.560962386067048E-2
191 211 5.33166769420706E-1
191 212 1.4655704944151262
191 214 6.085633236563367E-1
191 215 1.4971796092301588
191 216 -2.9589749229896576
191 217 -9.335925453172768
192 167 -1.8569519148753262
192 168 -2.224345052762435
192 169 1.068217960469631
192 170 -1.0124190385137886
192 171 1.328654207298624
192 172 -1.0122870098703338
192 183 -1.5412469060707632
192 184 -3.061217971996494
192 185 -1.6384414704197583
192 192 6.073606092656247E1
192 193 -5.998223179901869
192 194 5.218435882489697E-1
192 195 -4.067972380217525
192 196 -1.3253919552235467
192 197 -1.1615869050920893
192 198 -1.688798498242047E1
192 199 3.4179050355491274
192 200 -3.417295810770449
192 201 1.2062066318556333
192 204 -8.473723456005958
192 205 2.493436683635724
192 206 1.2795272617332718
192 207 6.152040184134579
192 208 -3.8397744078587137
192 209 -3.2814752096500055E-1
192 210 2.380863141803207
192 211 5.114489010894817E-1
192 212 3.5306360622106596
192 218 -6.117916067626655
192 219 3.5672078161619964
192 220 1.5163741136956888
192 221 -3.9604142098938957
192 222 -1.4531098314855928
192 223 1.9313773045075142
192 420 -1.4419967333924305E1
192 421 -1.7891855306787205
192 422 1.5153742834253678
192 423 -1.2754882953063982E1
192 424 6.2814183462713435
192 437 -3.197048097183666
192 438 8.78375656719842E-1
192 439 -3.2024885412456605
192 440 5.021563087296087
192 441 1.212801283181232
192 442 -1.8093099477834444
193 167 -2.224345052762435
193 168 -4.86130021949819
193 169 1.0212635588555357
193 170 1.3286542072986243
193 171 -2.7353131419745207
193 172 1.794298647632936
193 183 -3.061217971996494
193 184 -7.160823873098801
193 185 -2.5121175563919533
193 192 -5.998223179901869
193 193 6.294973416073303E1
193 194 2.595448141899523
193 195 -1.3253919552235465
193 196 -9.549008549408708
193 197 -2.761967142339538
193 198 3.417905035549127
193 199 -7.087711012031506
193 200 1.1575007241928137
193 201 -2.0308628421509662
193 204 2.4934366836357245
193 205 -8.719065558566456
193 206 -1.980118446810485
193 207 -3.8397744078587133
193 208 2.6724260525872854
193 209 3.089151258775157
193 210 5.114489010894816E-1
193 211 5.844491599724099
193 212 -1.6069953366453644
193 218 3.5672078161619982
193 219 -1.138390312582838E1
193 220 -2.0822359406205733
193 221 -1.4531098314855933
193 222 -3.971360178027672E-1
193 223 4.7314851949805603E-1
193 420 -1.7891855306787188
193 421 -5.766432138127989
193 422 2.0443735872018123E-1
193 423 6.281418346271341
193 424 -1.966479057331328E1
193 437 8.783756567198417E-1
193 438 3.1155610275695835
193 439 -4.0724520784176743E-1
193 440 1.2128012831812311
193 441 2.743271369036594
193 442 3.0462942632264447
194 167 5.220708036630454E-1
194 168 1.7017080196271223E-1
194 169 -1.2841090913568747
194 170 -5.06828971971771E-1
194 171 8.770057150448426E-1
194 172 -1.011611027475663
194 183 -1.6384414704197576
194 184 -2.5121175563919524
194 185 -3.1311735710384996
194 192 5.218435882489697E-1
194 193 2.595448141899523
194 194 4.3520294459612245E1
194 195 -5.995487625754324E-1
194 196 -1.9321400928520904
194 197 -5.538367689805627
194 198 -2.268045338036049
194 199 9.931620600101543E-1
194 200 -7.712104662702207
194 201 -9.262763864679219
194 204 1.279527261733271
194 205 -1.980118446810485
194 206 -1.1881829019501808E1
194 207 -3.2814752096499905E-1
194 208 3.089151258775156
194 209 2.5212760676348185
194 210 3.53063606221066
194 211 -1.6069953366453649
194 212 2.3501013547220877
194 218 1.5163741136956883
194 219 -2.0822359406205737
194 220 -5.059635918939387
194 221 1.931377304507513
194 222 4.731485194980564E-1
194 223 3.060965635672639E-1
194 420 4.4787810301014847E-1
194 421 2.919032418208269E-1
194 422 -6.011415710528156
194 423 6.031033159278174E-1
194 424 -1.0154314210754842
194 437 -3.2024885412456587
194 438 -4.0724520784176776E-1
194 439 -2.3282019889737885E-2
194 440 -1.8093099477834462
194 441 3.0462942632264456
194 442 2.218524130380767
195 32 -2.4494049047736577
195 33 -1.8191357605604848
195 34 -3.079631606156624E-1
195 77 -3.793270198193783
195 78 -1.7805981080088897
195 79 -2.802692336040166E-1
195 106 6.827662576734854E-1
195 107 1.9344093294661575
195 108 -1.084213475500055
195 148 -3.2519101801437458
195 149 1.3274985873743514
195 150 -4.871110041545501E-1
195 192 -4.067972380217525
195 193 -1.3253919552235465
195 194 -5.995487625754324E-1
195 195 4.103081900163986E1
195 196 -4.628017414832519E-1
195 197 -9.114070991052301E-1
195 198 -3.63066207708313E-2
195 199 1.1496404517987595
195 200 7.964220170270213E-1
195 201 -1.7359132947195957
195 202 1.8660956824343662
195 203 1.8410612664321213
195 207 5.87627328384573
195 208 -1.556532592149024
195 209 -1.6847292713153441
195 221 -2.0129825744804602E1
195 222 1.178655854831891
195 223 4.453672018130744
195 423 -1.1082116695260547E1
195 424 -5.118397484803272E-1
195 425 -2.779051818994382
196 32 -1.8191357605604854
196 33 -8.282548970037567E-1
196 34 -5.664244908150273E-1
196 77 -1.7805981080088906
196 78 -7.924463420617645
196 79 -4.251056725903901E-1
196 106 1.9344093294661595
196 107 -2.6649563618591974
196 108 3.0835400838020592
196 148 1.3274985873743517
196 149 -2.8719542232876427E-1
196 150 4.8632758848140545E-1
196 192 -1.3253919552235467
196 193 -9.549008549408708
196 194 -1.9321400928520904
196 195 -4.628017414832519E-1
196 196 4.0396557721446754E1
196 197 2.3932192249232114
196 198 1.1496404517987597
196 199 -3.053013650034493
196 200 -3.981564234086187E-1
196 201 4.117822428672855E-1
196 202 -2.580284877884033
196 203 -1.2815773435148063
196 207 -1.556532592149024
196 208 6.423285522137848
196 209 -1.3120749669090275
196 221 1.1786558548318895
196 222 -1.7876127601856155E1
196 223 -4.5939014998400074E-1
196 423 -5.118397484803258E-1
196 424 -2.0565384625918575
196 425 1.866095682434366
197 32 5.543583352044961E-1
197 33 -1.0671182304126892E-2
197 34 2.133359814247659E-1
197 77 -2.4539200848094833E-1
197 78 5.093172898651193E-1
197 79 -3.44404278913105
197 106 -1.0842134755000556
197 107 3.083540083802059
197 108 -7.697011597499642E-1
197 148 4.9296653593996254E-1
197 149 1.3664045758519594E-1
197 150 1.368969679998283E-1
197 192 -1.1615869050920893
197 193 -2.761967142339538
197 194 -5.538367689805627
197 195 -9.114070991052301E-1
197 196 2.3932192249232114
197 197 3.259007696307553E1
197 198 1.1643672922482404
197 199 -1.3871051218210573
197 200 1.804061141680734E-1
197 201 -3.7794135489755356
197 202 -6.139693814669446E-1
197 203 -1.7484042675913518
197 207 -1.684729271315345
197 208 -1.3120749669090284
197 209 -6.257945674345078E-1
197 221 4.453672018130746
197 222 -4.5939014998400035E-1
197 223 -1.721499200398016E1
197 423 -2.730606695553003
197 424 4.224608886491104E-1
197 425 1.152571273523227
198 118 -5.114751413361927E-1
198 119 1.4676827013381752
198 120 -9.019137559954602E-1
198 148 -2.2811322879002316
198 149 -1.9984317268477914
198 150 -1.9982692386522936
198 151 -1.2413518809208547E1
198 152 5.65972622418349E-1
198 153 7.602921769052742E-1
198 170 -2.20888433170899
198 171 -1.3819135186878804
198 172 1.0528646927450964
198 192 -1.688798498242047E1
198 193 3.417905035549127
198 194 -2.268045338036049
198 195 -3.63066207708313E-2
198 196 1.1496404517987597
198 197 1.1643672922482404
198 198 4.9321247036226794E1
198 199 -2.930128804269211
198 200 4.1748160240353327E-1
198 210 7.745138307757006
198 211 -1.261682807500407E-1
198 212 -1.7442151936726549
198 215 -1.1634102932007126E1
198 216 3.4460177120171265
198 217 3.4129556864871553
198 218 -4.942954206242407E-1
198 219 -3.581595363531159
198 220 -1.5771582068482073
198 221 -1.0598684818007165E1
198 222 -2.8980829035454576E-2
198 223 1.6816402824153647
199 118 1.467682701338175
199 119 -2.2730027908519688
199 120 1.322963430702654
199 148 -1.9984317268477918
199 149 -1.715196226603458
199 150 -8.247696408050883E-1
199 151 5.659726224183501E-1
199 152 -4.180850496854181
199 153 -6.027434178409648E-2
199 170 -1.381913518687881
199 171 -5.309757267284246
199 172 1.7790976074175273
199 192 3.4179050355491274
199 193 -7.087711012031506
199 194 9.931620600101543E-1
199 195 1.1496404517987595
199 196 -3.053013650034493
199 197 -1.3871051218210573
199 198 -2.930128804269211
199 199 3.543754555651517E1
199 200 -5.770892262964904E-1
199 210 -1.2616828075004002E-1
199 211 5.022383466930587
199 212 4.4320804584726653E-1
199 215 3.4460177120171256
199 216 -8.235266051140464
199 217 -2.3398950144996897
199 218 -3.581595363531159
199 219 -2.2687926342900125E-1
199 220 -2.4089628485557366
199 221 -2.8980829035453987E-2
199 222 -8.378252265216439
199 223 3.059665049784556
200 118 -4.658840652936144E-1
200 119 5.685169309243182E-1
200 120 -5.776444096427447E-1
200 148 -1.285048456619738
200 149 -2.3466180520941285E-1
200 150 -8.677280619787546E-1
200 151 1.65395685440923
200 152 -1.8062530496274076E-1
200 153 -4.3692354706958
200 170 5.271452904623602E-1
200 171 9.104998721837326E-1
200 172 -2.2097247319957622
200 192 -3.417295810770449
200 193 1.1575007241928137
200 194 -7.712104662702207
200 195 7.964220170270213E-1
200 196 -3.981564234086187E-1
200 197 1.804061141680734E-1
200 198 4.1748160240353327E-1
200 199 -5.770892262964904E-1
200 200 3.0521790438895646E1
200 210 -1.7442151936726558
200 211 4.43208045847266E-1
200 212 -4.0752083591549293E-1
200 215 3.412955686487154
200 216 -2.339895014499689
200 217 -7.026460844359227
200 218 -1.5771582068482068
200 219 -2.4089628485557353
200 220 -1.4456408026887008E-1
200 221 1.6816402824153645
200 222 3.059665049784557
200 223 -7.3872134555048605
201 106 1.1739747907507168
201 107 3.3130225022108175
201 108 -5.920060080182163E-1
201 192 1.2062066318556333
201 193 -2.0308628421509662
201 194 -9.262763864679219
201 195 -1.7359132947195957
201 196 4.117822428672855E-1
201 197 -3.7794135489755356
201 201 4.260254298211735E1
201 202 -2.333722028519394
201 203 -5.2547794405447
201 207 3.697606063595689
201 208 -4.6500132495710045E-1
201 209 1.9262403549493832
201 411 1.1277814692457317
201 412 -3.0971769829693514
201 413 -6.665445473630998
201 417 1.919260048565092
201 418 2.758079536700538E-1
201 419 -4.87393647104243
201 420 5.793622198037249E-1
201 421 8.253028268679564E-1
201 422 -5.041934557785291
201 423 -1.8678130204557017
201 424 2.726009253281047
201 425 -1.0526265319370385
201 434 -3.4163143072522573
201 435 -4.5851508511931854E-1
201 436 -3.19071243373963E-1
201 437 -1.7380866594111808
201 438 -2.4759084806038736
201 439 3.0295710980269344
201 440 1.633052425425597
201 441 1.7656531372692524E-1
201 442 -1.2319625187728896E1
201 446 -1.52648983546641
201 447 3.1326966516959183
201 448 5.506213606855913E-1
202 77 -1.9378295338629616
202 78 -1.8543684186500753
202 79 -1.3272600632918402E-1
202 80 8.908925058899282E-1
202 81 -4.633141440722825
202 82 -2.1676603194854538E-1
202 106 -2.053738034046918E-16
202 107 -4.041145776763977
202 108 -2.468747367189584E-15
202 195 1.8660956824343662
202 196 -2.580284877884033
202 197 -6.139693814669446E-1
202 201 -2.333722028519394
202 202 2.0111602602507944E1
202 203 2.7014643182193767
202 411 6.074355906701163E-1
202 412 -1.317143723017789
202 413 5.957191300446935E-1
202 423 -1.6011650177220094
202 424 -5.685518365469243
202 425 1.7457077259056053E-1
203 77 2.7802794808174675E-1
203 78 3.948553070266665E-1
203 79 -7.627151347994755E-1
203 80 1.0341823803918127E-1
203 81 6.682457970195322E-1
203 82 -7.803183218849001E-1
203 106 -1.1749008584553818E-15
203 107 -1.9372904826772802E-15
203 108 -1.0102864441909942E1
203 195 1.8410612664321213
203 196 -1.2815773435148063
203 197 -1.7484042675913518
203 201 -5.2547794405447
203 202 2.7014643182193767
203 203 2.115841865995946E1
203 411 -2.3910180142054553
203 412 7.402486930102747E-1
203 413 -2.5093370532290877
203 423 -1.4617416846676272
203 424 -3.2232367717610417
203 425 1.6302522463200328
204 173 -4.013389576869865E-1
204 174 -1.3346070316677678
204 175 -1.0682179604696296
204 176 -2.173788658915808
204 177 8.564310887595068E-1
204 178 9.960469426822355E-1
204 183 -5.761203548907683
204 184 -4.162841348866027
204 185 1.6384414704197565
204 186 6.15786149834578E-1
204 187 2.133768505840897
204 188 2.7931205009520163E-2
204 192 -8.473723456005958
204 193 2.4934366836357245
204 194 1.279527261733271
204 204 5.133369640966777E1
204 205 -5.916221087769778
204 206 -3.0738082474922317
204 207 -1.271339463681652E1
204 208 2.8900767435123913
204 209 1.4897344260570895
204 210 -2.0138900316966797E1
204 211 2.800327588823796
204 212 -1.207143139780752E-1
204 218 2.5542445239252807
204 219 2.4066337016036066
204 220 -1.5277810532025295
204 221 1.0968071325363E1
204 222 -5.878086492112181
204 223 -1.9313773045075129
204 437 -1.1942788900606931E1
204 438 -3.6028166486450686E-2
204 439 1.6871142578202902
204 440 -3.8666599328839344
204 441 3.7471098147262825
204 442 6.031033159278154E-1
205 173 -1.334607031667768
205 174 -1.6618392837289564
205 175 -1.0212635588555323
205 176 8.564310887595064E-1
205 177 -4.770399930770577
205 178 -2.271540502299897
205 183 -4.162841348866028
205 184 -8.863788325959016
205 185 2.512117556391947
205 186 2.1337685058408975
205 187 -8.23844160118875E-2
205 188 8.20805722503136E-1
205 192 2.493436683635724
205 193 -8.719065558566456
205 194 -1.980118446810485
205 204 -5.916221087769778
205 205 4.982654682968898E1
205 206 1.5731364089119584
205 207 2.8900767435123904
205 208 -1.8869765411966693E1
205 209 -3.2718411643561873E-1
205 210 2.800327588823796
205 211 -1.2401371115901894E1
205 212 2.3279530688688516E-1
205 218 2.4066337016036066
205 219 2.396907803594774
205 220 1.7470237211595574
205 221 -5.87808649211218
205 222 1.4327407935549335E1
205 223 -4.7314851949805586E-1
205 437 -3.602816648645088E-2
205 438 -2.7214889237892645
205 439 2.028078491215879E-1
205 440 3.7471098147262842
205 441 -8.460759602138333
205 442 -1.0154314210754825
206 173 -5.220708036630437E-1
206 174 -1.7017080196271028E-1
206 175 4.695063665512935E-1
206 176 4.9058890478367234E-1
206 177 -1.354247569711803
206 178 -2.9690061295076204
206 183 1.638441470419756
206 184 2.5121175563919476
206 185 -5.253348497317989
206 186 2.7931205009520475E-2
206 187 8.20805722503136E-1
206 188 1.9108908194439251
206 192 1.2795272617332718
206 193 -1.980118446810485
206 194 -1.1881829019501808E1
206 204 -3.0738082474922317
206 205 1.5731364089119584
206 206 3.769919640029764E1
206 207 9.276962835404315E-1
206 208 -1.1570111659230666
206 209 -1.0671561723850479E1
206 210 -1.269964786712476
206 211 3.971339710695446E-1
206 212 -1.0622873648834345E1
206 218 -1.527781053202529
206 219 1.747023721159557
206 220 6.590032678546749E-1
206 221 -1.9313773045075129
206 222 -4.7314851949805575E-1
206 223 8.778390703169835
206 437 2.7546104382355097
206 438 1.1534196602094246E-1
206 439 -4.596248671155895
206 440 1.2062066318556308
206 441 -2.030862842150965
206 442 -3.5221198671492195
207 88 -2.4494049047736604
207 89 -1.8191357605604863
207 90 3.0796316061566326E-1
207 97 -3.7932701981937864
207 98 -1.780598108008892
207 99 2.8026923360401657E-1
207 106 -1.8448843227830034
207 107 2.379146622274524
207 108 1.0842134755000543
207 160 1.3274985873743521
207 161 4.871110041545504E-1
207 192 6.152040184134579
207 193 -3.8397744078587133
207 194 -3.2814752096499905E-1
207 195 5.87627328384573
207 196 -1.556532592149024
207 197 -1.684729271315345
207 201 3.697606063595689
207 204 -1.271339463681652E1
207 205 2.8900767435123904
207 206 9.276962835404315E-1
207 207 6.308889657461102E1
207 208 -7.791049401522384
207 209 4.280865641735919
207 210 -3.6306620770833575E-2
207 211 1.1496404517987597
207 212 -7.964220170270213E-1
207 213 -3.2519101801437458
207 221 -3.3003938342460145E1
207 222 5.708192233635467
207 223 -4.453672018130745
207 423 1.548841404921433
207 424 1.3526375720527428
207 440 -1.679389042257669E1
207 441 1.1380237701690477E-1
207 442 -1.9616927688760923
207 443 -2.779051818994383
207 444 1.866095682434365
207 445 -1.8410612664321206
208 88 -1.8191357605604863
208 89 -8.282548970037584E-1
208 90 5.664244908150278E-1
208 97 -1.7805981080088924
208 98 -7.924463420617647
208 99 4.2510567259038934E-1
208 106 2.379146622274526
208 107 -8.7947433100575
208 108 -3.0835400838020606
208 160 -2.871954223287638E-1
208 161 -4.863275884814051E-1
208 192 -3.8397744078587137
208 193 2.6724260525872854
208 194 3.089151258775156
208 195 -1.556532592149024
208 196 6.423285522137848
208 197 -1.3120749669090284
208 201 -4.6500132495710045E-1
208 204 2.8900767435123913
208 205 -1.8869765411966693E1
208 206 -1.1570111659230666
208 207 -7.791049401522384
208 208 6.0976274738299736E1
208 209 2.3093070889484835E-1
208 210 1.1496404517987602
208 211 -3.0530136500344938
208 212 3.9815642340861895E-1
208 213 1.3274985873743514
208 221 5.708192233635465
208 222 -2.7477192433635256E1
208 223 4.593901499839991E-1
208 423 1.3526375720527435
208 424 5.192999837401413
208 440 1.1380237701690427E-1
208 441 -5.450072726898135
208 442 5.321908208981466E-2
208 443 1.8660956824343649
208 444 -2.5802848778840355
208 445 1.2815773435148075
209 88 -5.543583352044958E-1
209 89 1.0671182304127114E-2
209 90 2.1333598142476523E-1
209 97 2.4539200848094755E-1
209 98 -5.093172898651203E-1
209 99 -3.44404278913105
209 106 1.0842134755000556
209 107 -3.08354008380206
209 108 -3.243254739365619
209 160 -1.3664045758519563E-1
209 161 1.3689696799982815E-1
209 192 -3.2814752096500055E-1
209 193 3.089151258775157
209 194 2.5212760676348185
209 195 -1.6847292713153441
209 196 -1.3120749669090275
209 197 -6.257945674345078E-1
209 201 1.9262403549493832
209 204 1.4897344260570895
209 205 -3.2718411643561873E-1
209 206 -1.0671561723850479E1
209 207 4.280865641735919
209 208 2.3093070889484835E-1
209 209 4.4772303988739566E1
209 210 -1.1643672922482406
209 211 1.3871051218210575
209 212 1.8040611416807145E-1
209 213 -4.929665359399623E-1
209 221 -4.453672018130746
209 222 4.5939014998399863E-1
209 223 -2.3636471269532915E1
209 423 3.697606063595689
209 424 -4.650013249571001E-1
209 440 -9.669993680426849E-1
209 441 4.2540436307989225E-2
209 442 -6.380930118010512
209 443 -1.1525712735232265
209 444 6.139693814669455E-1
209 445 -1.7484042675913534
210 160 -1.9984317268477916
210 161 1.998269238652294
210 162 8.070948922313398E-2
210 163 -7.67922682705882E-1
210 176 -1.4338460940423156E-1
210 177 -8.907612626972556E-1
210 178 -1.0359736399276294
210 179 -1.296196992326477
210 180 4.1327053181055234E-1
210 181 8.382032069972517E-1
210 186 -4.956724890151538
210 187 -2.219300949618137
210 188 -2.90508317242105E-2
210 189 7.176727353423713E-1
210 190 1.915095402185816
210 191 8.560962386067048E-2
210 192 2.380863141803207
210 193 5.114489010894816E-1
210 194 3.53063606221066
210 198 7.745138307757006
210 199 -1.2616828075004002E-1
210 200 -1.7442151936726558
210 204 -2.0138900316966797E1
210 205 2.800327588823796
210 206 -1.269964786712476
210 207 -3.6306620770833575E-2
210 208 1.1496404517987602
210 209 -1.1643672922482406
210 210 5.511752618928124E1
210 211 -1.744250016889049
210 212 3.108330417922804
210 213 -2.2811322879002294
210 214 -1.4610167418603652E1
210 215 -9.850124147491773
210 216 3.051236006199616
210 217 -3.4470023042463236
210 218 -7.626414186889416E-1
210 219 -2.6317085243808624
210 220 1.5890223953065483
210 221 -1.188562167187936E1
210 222 -3.11107609948022E-1
210 223 -1.6915742137128105
211 160 -1.7151962266034575
211 161 8.247696408050891E-1
211 162 -5.339736255912786
211 163 1.2752440118269107E-2
211 176 -8.907612626972558E-1
211 177 -1.0491526584911446
211 178 -1.2827254384776208
211 179 4.132705318105522E-1
211 180 -2.8226270118846473
211 181 -1.7197453117056418
211 186 -2.2193009496181357
211 187 -1.0704950332647718E1
211 188 -8.537078480710527E-1
211 189 1.9150954021858153
211 190 -3.374812432903427E-1
211 191 5.33166769420706E-1
211 192 5.114489010894817E-1
211 193 5.844491599724099
211 194 -1.6069953366453649
211 198 -1.261682807500407E-1
211 199 5.022383466930587
211 200 4.43208045847266E-1
211 204 2.800327588823796
211 205 -1.2401371115901894E1
211 206 3.971339710695446E-1
211 207 1.1496404517987597
211 208 -3.0530136500344938
211 209 1.3871051218210575
211 210 -1.744250016889049
211 211 4.750660877540468E1
211 212 1.0110161755572947E-1
211 213 -1.9984317268477911
211 214 8.070948922313403E-2
211 215 3.0512360061996153
211 216 -4.7458672950664225
211 217 2.1278566433242716
211 218 -2.6317085243808624
211 219 -2.8345270868030004
211 220 2.7576121021823705
211 221 -3.1110760994802117E-1
211 222 -1.3369560965423464E1
211 223 -3.121532417244623
212 160 2.3466180520941343E-1
212 161 -8.677280619787548E-1
212 162 1.3310340329691306E-1
212 163 -5.740161889470661
212 176 -5.102542376448935E-1
212 177 -4.1412770324382675E-1
212 178 6.837092776816336E-1
212 179 4.0217351629540543E-1
212 180 -9.652988119273055E-1
212 181 -2.0126739195217995
212 186 -2.9050831724210063E-2
212 187 -8.537078480710528E-1
212 188 -6.303744032692598
212 189 8.560962386067034E-2
212 190 5.331667694207054E-1
212 191 1.4655704944151262
212 192 3.5306360622106596
212 193 -1.6069953366453644
212 194 2.3501013547220877
212 198 -1.7442151936726549
212 199 4.4320804584726653E-1
212 200 -4.0752083591549293E-1
212 204 -1.207143139780752E-1
212 205 2.3279530688688516E-1
212 206 -1.0622873648834345E1
212 207 -7.964220170270213E-1
212 208 3.9815642340861895E-1
212 209 1.8040611416807145E-1
212 210 3.108330417922804
212 211 1.0110161755572947E-1
212 212 3.624073160930343E1
212 213 1.2850484566197382
212 214 -1.6615873602098377
212 215 -3.4470023042463214
212 216 2.127856643324272
212 217 -5.638888667566417
212 218 1.5890223953065474
212 219 2.757612102182369
212 220 -2.4186193496722366E-1
212 221 -1.6915742137128102
212 222 -3.1215324172446235
212 223 -9.085065859343059
213 88 -7.887622579502963E-1
213 89 -2.5202381213862346E-1
213 90 8.452648391753495E-2
213 133 -2.102665610009094
213 134 1.8186172550380064E-1
213 135 1.725395053663968
213 136 4.2444019698649776E-1
213 137 -3.9149707096768793E-1
213 138 1.3145270239614792
213 139 -8.43737320363192
213 140 -3.09039627734491
213 141 -2.06254030275018
213 142 7.394026994638003E-1
213 143 1.6103226243084479
213 144 -8.927363612866649E-1
213 154 1.9037903531930704
213 155 1.3507284458440125
213 156 -2.02378408299673
213 160 3.3899425284382083
213 161 -1.8567591646175003
213 162 -1.3626397574021962
213 163 5.01223544854434E-1
213 207 -3.2519101801437458
213 208 1.3274985873743514
213 209 -4.929665359399623E-1
213 210 -2.2811322879002294
213 211 -1.9984317268477911
213 212 1.2850484566197382
213 213 2.5811402999291428E1
213 214 -6.466258222393836
213 221 -5.550934486905675
213 222 -7.653652667676134E-1
213 223 2.4180658845738825
214 115 -9.00212531920823E-1
214 116 1.491936080474373
214 117 3.4163957225426606E-1
214 133 5.836327837384284E-1
214 134 -1.9806860655971054E-1
214 135 1.5515333948518897
214 142 -8.830073081117554
214 143 -1.753828945726603
214 144 9.722939041483033E-1
214 154 -1.781832884034264
214 155 -1.9887567668736104
214 156 -2.515237965415561
214 157 -3.7008229876141456
214 158 2.412004780062994
214 159 -2.7058173132545544
214 160 -1.3626397574021964
214 161 4.1144348752105064E-1
214 162 1.6795363637199796
214 163 3.232731399100708E-2
214 179 -9.006555474963465E-2
214 180 -4.7907497261028437E-1
214 181 -9.716690340218624E-1
214 189 -6.184408794687268
214 190 -2.6893062668381673E-1
214 191 6.085633236563367E-1
214 210 -1.4610167418603652E1
214 211 8.070948922313403E-2
214 212 -1.6615873602098377
214 213 -6.466258222393836
214 214 3.8833546682536124E1
214 215 3.957471528462363E-1
214 216 -1.4469535700473724
214 217 2.240304024162062
214 221 2.750914856000386
214 222 1.8340665324231131
214 223 1.6962066523169002
215 118 -1.6058294154146133
215 119 3.5575846327575844E-1
215 120 -7.629621338982826E-1
215 145 -1.4622276307802835
215 146 1.6437149419153474
215 147 4.3243917663558834E-1
215 151 -3.653863415210079
215 152 -1.9290481408835367
215 153 -3.941534620892959
215 154 2.148296138324582
215 155 -3.6266754062413495
215 156 7.143937152187068E-1
215 157 -9.663189524735275
215 158 6.755410324009519E-1
215 159 3.223379897533496E-1
215 162 -1.4469535700473717
215 163 2.240304024162062
215 164 -6.48035573687749
215 165 1.7270150075977044
215 166 -2.316347972301285
215 170 7.704339844624695E-1
215 171 -1.0208844826087733
215 172 1.5108580221408547
215 186 -2.03395469056984
215 187 -1.9047148941225007
215 188 -1.7182186984449448
215 189 -4.994370009562242
215 190 1.389579568450222
215 191 1.4971796092301588
215 198 -1.1634102932007126E1
215 199 3.4460177120171256
215 200 3.412955686487154
215 210 -9.850124147491773
215 211 3.0512360061996153
215 212 -3.4470023042463214
215 214 3.957471528462363E-1
215 215 4.805794197236786E1
215 216 -4.491884238597234
215 217 2.346659074428518
215 218 -9.131030588841885
215 219 1.456700286508457
215 220 -3.583038241891512E-1
215 221 9.13662884348945
215 222 6.74597714135586E-1
215 223 6.724225591655228E-2
216 118 8.044755766363071E-2
216 119 -2.3699321986613855
216 120 1.1550365231174333
216 145 8.981925141948769E-1
216 146 -3.7429934313926433E-1
216 147 1.1105238048214977E-1
216 151 -1.9290481408835374
216 152 -2.8364875662023143
216 153 -2.4761448110962134
216 154 -3.6266754062413487
216 155 2.0551612660371887
216 156 -2.1493878765907165E-1
216 157 6.7554103240095E-1
216 158 -3.5252332818170062
216 159 2.0553920576634693E-1
216 162 5.206331020250612E-1
216 163 2.658035852717239
216 164 1.1436816742646325
216 165 -4.139876411800062
216 166 2.444489567999627E-1
216 170 -5.683972377112422E-1
216 171 1.5272811310390846
216 172 -3.5369157643699434E-1
216 186 -1.3363688056874317
216 187 -1.7336383956978703
216 188 -7.115789653379805E-1
216 189 1.0979129017847629
216 190 -6.895501612664257
216 191 -2.9589749229896576
216 198 3.4460177120171265
216 199 -8.235266051140464
216 200 -2.339895014499689
216 210 3.051236006199616
216 211 -4.7458672950664225
216 212 2.127856643324272
216 214 -1.4469535700473724
216 215 -4.491884238597234
216 216 3.4966021081871844E1
216 217 1.7948301275459595
216 218 2.331700286506987
216 219 -3.207351213644941
216 220 6.549358583566198E-1
216 221 6.745977141355858E-1
216 222 -1.0056432111391964
216 223 1.0348852990962293E-1
217 118 -7.62962133898283E-1
217 119 2.031491136217318
217 120 -5.652026911322742
217 145 4.324391766355879E-1
217 146 -9.575937547099203E-2
217 147 6.328741749664206E-1
217 151 -3.9415346208929596
217 152 -2.476144811096213
217 153 -7.371489114603116
217 154 7.143937152187069E-1
217 155 -2.149387876590721E-1
217 156 4.850964641202572
217 157 3.2233798975334993E-1
217 158 2.0553920576634652E-1
217 159 -3.6514780641200995
217 162 2.6580358527172394
217 163 -4.070133571876384
217 164 -2.316347972301285
217 165 8.396870520413094E-1
217 166 -5.438201814391722
217 170 1.5108580221408543
217 171 2.5526675689986E-1
217 172 3.506058974113405E-1
217 186 -1.718218698444943
217 187 -1.3949420605802274
217 188 -2.4515167899999684
217 189 1.4971796092301588
217 190 -4.000641589661565
217 191 -9.335925453172768
217 198 3.4129556864871553
217 199 -2.3398950144996897
217 200 -7.026460844359227
217 210 -3.4470023042463236
217 211 2.1278566433242716
217 212 -5.638888667566417
217 214 2.240304024162062
217 215 2.346659074428518
217 216 1.7948301275459595
217 217 4.301184297227081E1
217 218 -3.5830382418915135E-1
217 219 5.061263345458327E-1
217 220 -2.916675422379039
217 221 6.724225591655256E-2
217 222 1.034885299096231E-1
217 223 4.706508967940332
218 167 -7.665432398985093E-1
218 168 -8.552393868707728E-1
218 169 1.2756200711948213
218 170 -4.953890991050012
218 171 1.1684894624181268
218 172 -1.7293060166514769
218 183 -1.3963536342036349E1
218 184 -1.177961311065594
218 185 -2.260679215469295
218 186 -5.6781433119943
218 187 1.1108445995070928
218 188 8.813847722450889E-1
218 192 -6.117916067626655
218 193 3.5672078161619982
218 194 1.5163741136956883
218 198 -4.942954206242407E-1
218 199 -3.581595363531159
218 200 -1.5771582068482068
218 204 2.5542445239252807
218 205 2.4066337016036066
218 206 -1.527781053202529
218 210 -7.626414186889416E-1
218 211 -2.6317085243808624
218 212 1.5890223953065474
218 215 -9.131030588841885
218 216 2.331700286506987
218 217 -3.5830382418915135E-1
218 218 3.9313752856835606E1
218 219 -2.3383712803494223
218 220 2.190826963918513
219 167 -1.2607272020621763E-1
219 168 1.1885542895158356
219 169 -4.089909603606997E-1
219 170 6.505791733026873E-1
219 171 -5.820167176555432
219 172 2.2267010926621045
219 183 -3.0296131106706237E-1
219 184 -8.250948502187473
219 185 -6.580293741452803E-3
219 186 8.995882219579776E-1
219 187 -1.0755262667745848E1
219 188 -4.613610576069037
219 192 3.5672078161619964
219 193 -1.138390312582838E1
219 194 -2.0822359406205737
219 198 -3.581595363531159
219 199 -2.2687926342900125E-1
219 200 -2.4089628485557353
219 204 2.4066337016036066
219 205 2.396907803594774
219 206 1.747023721159557
219 210 -2.6317085243808624
219 211 -2.8345270868030004
219 212 2.757612102182369
219 215 1.456700286508457
219 216 -3.207351213644941
219 217 5.061263345458327E-1
219 218 -2.3383712803494223
219 219 3.889357694308346E1
219 220 2.2829173687976363
220 167 1.2756200711948211
220 168 -3.696715083585306E-2
220 169 5.611549649257184E-1
220 170 -1.7293060166514764
220 171 3.3515671640943188
220 172 -1.0581457160946407E1
220 183 -2.260679215469296
220 184 -7.506279127916557E-1
220 185 -8.036027446449904
220 186 8.813847722450889E-1
220 187 -5.515262361786684
220 188 -1.1295719571157E1
220 192 1.5163741136956888
220 193 -2.0822359406205733
220 194 -5.059635918939387
220 198 -1.5771582068482073
220 199 -2.4089628485557366
220 200 -1.4456408026887008E-1
220 204 -1.5277810532025295
220 205 1.7470237211595574
220 206 6.590032678546749E-1
220 210 1.5890223953065483
220 211 2.7576121021823705
220 212 -2.4186193496722366E-1
220 215 -3.583038241891512E-1
220 216 6.549358583566198E-1
220 217 -2.916675422379039
220 218 2.190826963918513
220 219 2.2829173687976363
220 220 3.705578330232744E1
221 9 -1.6256322956956297
221 10 -2.7001105662531466
221 11 4.169004056334054E-1
221 12 -1.71469629827802
221 13 -1.9540643317132291
221 32 -7.017433409634086
221 33 -7.763412019601446E-1
221 34 -3.464761620153137
221 40 -9.289012336377835
221 41 -4.131450840870842E-15
221 42 -1.511821578227251E-15
221 43 -4.609856164516447
221 44 -2.5507633542351176
221 45 1.1005501436557913E-1
221 48 -6.55531362180756E-1
221 64 1.0490737959739935
221 65 -1.5901537723218735
221 66 2.0169732942901306
221 77 3.225469061703156
221 78 1.7530715757117783
221 79 2.6729143452885493
221 88 -6.965833430600605
221 89 -5.296293046996468E-1
221 90 2.9110944823556224
221 97 3.2254690617031625
221 98 1.753071575711779
221 99 -2.6729143452885484
221 106 -9.194615918095181
221 107 3.385847725323992
221 108 -5.551115123125783E-17
221 109 2.725283831620473
221 110 4.1206167186491505E-2
221 128 8.921742947544224E-1
221 139 -9.266135618460221E-1
221 140 7.990963582200372E-1
221 141 2.650388460058934
221 148 -6.114997589182867
221 149 -7.986039226439459E-1
221 150 -2.737563297187192
221 151 2.3999831514298164
221 152 1.8458286844360203
221 153 -1.7577387769658368
221 154 -1.2565981693092194E1
221 155 3.6364051864885463
221 156 1.1031415017254775E-1
221 160 -7.653652667676141E-1
221 161 2.4180658845738816
221 162 1.8340665324231136
221 163 1.696206652316899
221 192 -3.9604142098938957
221 193 -1.4531098314855933
221 194 1.931377304507513
221 195 -2.0129825744804602E1
221 196 1.1786558548318895
221 197 4.453672018130746
221 198 -1.0598684818007165E1
221 199 -2.8980829035453987E-2
221 200 1.6816402824153645
221 204 1.0968071325363E1
221 205 -5.87808649211218
221 206 -1.9313773045075129
221 207 -3.3003938342460145E1
221 208 5.708192233635465
221 209 -4.453672018130746
221 210 -1.188562167187936E1
221 211 -3.1110760994802117E-1
221 212 -1.6915742137128102
221 213 -5.550934486905675
221 214 2.750914856000386
221 215 9.13662884348945
221 216 6.745977141355858E-1
221 217 6.724225591655256E-2
221 221 1.0754160134007485E2
221 222 -6.4086384900042574
221 223 6.026261623333509E-1
222 9 8.921742947544224E-1
222 10 3.9377067237342356E-1
222 11 -1.7146962982780196
222 12 2.390034979195277
222 13 -3.0008943538435423E-1
222 32 -7.763412019601457E-1
222 33 -7.7011924260263385
222 34 -4.014950874989564
222 40 -2.9338311635409327E-15
222 41 -3.715604934551136
222 42 -1.6523239891879234E-15
222 43 -2.5507633542351167
222 44 -4.847154999166876
222 45 1.706201293607934E-3
222 48 -5.376630173083807
222 64 -1.590153772321874
222 65 2.655968579256737
222 66 3.3201302548224043E-1
222 77 1.7530715757117783
222 78 7.022502939174999E-1
222 79 -2.3856245323027037
222 88 -5.296293046996466E-1
222 89 -7.664119796676283
222 90 3.9589050050538477
222 97 1.753071575711779
222 98 7.022502939175045E-1
222 99 2.385624532302703
222 106 3.385847725323989
222 107 -7.357697907713424E-1
222 108 2.0252896582029223E-16
222 109 -6.555313621807555E-1
222 110 -3.942220171851696E-4
222 128 1.8672146988952871
222 139 7.990963582200366E-1
222 140 1.88336336604447
222 141 -3.963513603616304E-1
222 148 -7.986039226439436E-1
222 149 -6.958361516919084
222 150 5.268574209816361E-1
222 151 1.8458286844360186
222 152 1.5103355466968251
222 153 2.5810337789052658
222 154 3.6364051864885454
222 155 -7.878566149607814
222 156 1.3403895606397993E-3
222 160 -6.53536748542175
222 161 -5.249668401790006E-1
222 162 1.2641526048902108
222 163 -2.696221183610697
222 192 -1.4531098314855928
222 193 -3.971360178027672E-1
222 194 4.731485194980564E-1
222 195 1.178655854831891
222 196 -1.7876127601856155E1
222 197 -4.5939014998400035E-1
222 198 -2.8980829035454576E-2
222 199 -8.378252265216439
222 200 3.059665049784557
222 204 -5.878086492112181
222 205 1.4327407935549335E1
222 206 -4.7314851949805575E-1
222 207 5.708192233635467
222 208 -2.7477192433635256E1
222 209 4.5939014998399863E-1
222 210 -3.11107609948022E-1
222 211 -1.3369560965423464E1
222 212 -3.1215324172446235
222 213 -7.653652667676134E-1
222 214 1.8340665324231131
222 215 6.74597714135586E-1
222 216 -1.0056432111391964
222 217 1.034885299096231E-1
222 221 -6.4086384900042574
222 222 9.261370146893456E1
222 223 9.57262604422175E-2
223 9 -2.700110566253146
223 10 -4.806649670337607E-1
223 11 -1.9540643317132285
223 12 -3.0008943538435406E-1
223 13 1.6512975734222812
223 32 -3.464761620153137
223 33 -4.014950874989563
223 34 -1.5101541628884968E1
223 40 -1.0252417121292201E-15
223 41 -9.701541090684137E-16
223 42 -3.7156049345511364
223 43 1.1005501436557709E-1
223 44 1.7062012936090998E-3
223 45 -1.4111562115203824E-1
223 48 -3.9422201718575245E-4
223 64 2.0169732942901315
223 65 3.320130254822398E-1
223 66 1.9503876872352854
223 77 2.67291434528855
223 78 -2.3856245323027045
223 79 -7.5147244360239E-1
223 88 2.911094482355623
223 89 3.9589050050538472
223 90 -1.5297136406193239E1
223 97 -2.6729143452885498
223 98 2.3856245323027045
223 99 -7.514724436023855E-1
223 106 5.551115123125783E-17
223 107 -9.454242944073599E-17
223 108 -2.856782637088787E-1
223 109 4.120616718649189E-2
223 110 2.4290369081065752
223 128 3.937706723734238E-1
223 139 2.6503884600589327
223 140 -3.9635136036163154E-1
223 141 -3.186277741753525E-1
223 148 -2.737563297187192
223 149 5.268574209816351E-1
223 150 -1.1803535335862481E1
223 151 -1.7577387769658372
223 152 2.581033778905267
223 153 1.4467091223969892
223 154 1.1031415017254739E-1
223 155 1.3403895606396731E-3
223 156 -3.5626263418090596
223 160 -5.249668401790006E-1
223 161 -1.165906308384282E1
223 162 -2.6962211836106977
223 163 1.633193598560946
223 192 1.9313773045075142
223 193 4.7314851949805603E-1
223 194 3.060965635672639E-1
223 195 4.453672018130744
223 196 -4.5939014998400074E-1
223 197 -1.721499200398016E1
223 198 1.6816402824153647
223 199 3.059665049784556
223 200 -7.3872134555048605
223 204 -1.9313773045075129
223 205 -4.7314851949805586E-1
223 206 8.778390703169835
223 207 -4.453672018130745
223 208 4.593901499839991E-1
223 209 -2.3636471269532915E1
223 210 -1.6915742137128105
223 211 -3.121532417244623
223 212 -9.085065859343059
223 213 2.4180658845738825
223 214 1.6962066523169002
223 215 6.724225591655228E-2
223 216 1.0348852990962293E-1
223 217 4.706508967940332
223 221 6.026261623333509E-1
223 222 9.57262604422175E-2
223 223 9.829066070837999E1
224 224 5.666335236944771
224 225 1.243735880085083
224 226 -1.963941934872309
224 230 -5.089285714276835E-2
224 231 1.6041666666513457E-1
224 232 -6.770833333289686E-1
224 236 -1.1254829607376988
224 237 -1.5058501167615232
224 238 -2.6479952769856313E-1
224 242 8.743055555474546E-1
224 243 6.250000000362285E-3
224 244 -3.6458333332736304E-1
224 248 -9.279552825706914E-1
224 249 1.3222829873659997E-1
224 250 4.692192389404229E-2
224 254 1.7340472329674908E-2
224 255 7.136291876075614E-1
224 256 4.570840487197193E-1
224 269 -3.498112835206785
224 270 2.713467600743582E-1
224 271 1.9380300983331211
224 286 -9.555373291639531E-1
224 287 -1.0217566764075765
224 288 8.283720582803202E-1
225 224 1.243735880085083
225 225 5.235047400927252
225 226 -1.4047803760473292
225 230 1.4583333332317663E-2
225 231 3.866071428556823E-1
225 232 -3.6458333333401E-1
225 236 -1.5058501167615237
225 237 -1.263225474508289
225 238 8.402357200479804E-2
225 242 6.874999999972606E-2
225 243 6.868055555493632E-1
225 244 -6.770833333286987E-1
225 248 5.864649821555522E-1
225 249 -2.2906653328275484
225 250 4.122197886196599E-1
225 254 4.052258375214263E-1
225 255 2.165207375635302E-1
225 256 -1.7503873534830683E-1
225 269 -3.119865732587144E-1
225 270 -1.2139213427288837
225 271 3.494478090636756E-1
225 286 -5.009233430738671E-1
225 287 -1.757168686831105
225 288 1.775794608370211
226 224 -1.963941934872309
226 225 -1.4047803760473292
226 226 5.918931220128062
226 230 -2.6041666666525254E-1
226 231 -2.604166666662367E-1
226 232 8.133928571354102E-1
226 236 3.3043856753338496E-1
226 237 6.792616672405514E-1
226 238 4.0561230725267816E-1
226 242 -2.604166666630477E-1
226 243 -2.604166666649832E-1
226 244 2.1201388888712214
226 248 -1.8264893236280982E-1
226 249 4.1221978861966097E-1
226 250 -2.406215887240456
226 254 9.141680974462255E-2
226 255 -6.958720686797961E-1
226 256 -1.1924957069051378
226 269 1.9380300983331216
226 270 -2.4579028617207754E-1
226 271 -3.0367466701667123
226 286 3.075387249522887E-1
226 287 1.7757946083702105
226 288 -2.6226170090750633
227 227 5.718217039589402
227 228 1.394385893329135
227 229 1.9787548998519808
227 254 7.309649528162178E-1
227 255 3.239871841598615E-1
227 256 -3.042267409220153E-1
227 257 -2.6466481245757173E-1
227 258 -8.963826749314407E-1
227 259 -1.5492585714179163E-1
227 263 -3.4934104127226345E-1
227 264 3.028419961717524E-1
227 265 2.4277864583124156E-1
227 298 -4.589316791733939
227 299 -4.898552053311869E-1
227 300 -1.834238300006195
227 312 -1.0781014104743547
227 313 -6.745605267292103E-1
227 314 -1.4391645715055995E-1
227 320 -1.042063491906065
227 321 3.3333333330614605E-2
227 322 -1.4880952378908935E-1
227 326 8.743055554385744E-1
227 327 6.250000000474404E-3
227 328 3.6458333332642895E-1
228 227 1.394385893329135
228 228 5.6740226095494535
228 229 2.047636886737611
228 254 5.15964756438222E-1
228 255 1.368107196449208E-1
228 256 -4.9346247873829546E-1
228 257 -8.96382674931441E-1
228 258 -2.545836011658507E-1
228 259 1.4203058186481932E-1
228 263 2.7531090559413857E-2
228 264 4.765916755647527E-1
228 265 3.852645089278375E-1
228 298 -1.0731885386647813
228 299 -2.8066671969671004
228 300 -9.187378904774075E-1
228 312 -1.5372719339610091E-1
228 313 -2.6209162701552957
228 314 -1.8398149416628098
228 320 1.1666666666459315E-1
228 321 -1.2920634919080005
228 322 -7.352143588268402E-14
228 326 6.875000000095918E-2
228 327 6.8680555543712E-1
228 328 6.770833333483182E-1
229 227 1.9787548998519808
229 228 2.047636886737611
229 229 7.205582246310376
229 254 2.166065924153504E-1
229 255 -1.7944090135875548E-1
229 256 -8.33515954463836E-1
229 257 -7.501639523737389E-1
229 258 -4.5320751337093407E-1
229 259 1.4973258955204631
229 263 -1.7388802083247448E-1
229 264 4.8790959821201363E-1
229 265 9.024027380107384E-1
229 298 -1.8342383000061955
229 299 -3.234997952416543E-1
229 300 -5.9383668216487875
229 312 3.769168761868138E-1
229 313 -1.8398149416628091
229 314 -2.373408262548433
229 320 -7.440476189450683E-2
229 321 -7.460081940857657E-14
229 322 -2.580158729778364
229 326 2.604166666527712E-1
229 327 2.604166666846024E-1
229 328 2.120138888597843
230 224 -5.089285714276835E-2
230 225 1.4583333332317663E-2
230 226 -2.6041666666525254E-1
230 230 1.1371775264103539E1
230 231 -4.589659942234038E-1
230 232 1.6157928652714348
230 233 -3.7518396662070286E-1
230 234 1.4039639514647975E-1
230 235 -4.552112501333164E-1
230 236 -5.400637350647182E-2
230 237 4.014957753953742E-1
230 238 -3.869289111564961E-1
230 269 -9.147553038528915
230 270 7.237297284768338E-1
230 271 -1.9118872505571158
230 272 1.0099822559357356E-1
230 273 -3.618648642386474E-1
230 274 9.559436252791672E-1
230 275 -1.8451372538982544
230 276 -4.593743738889541E-1
230 277 4.4270758796157833E-1
231 224 1.6041666666513457E-1
231 225 3.866071428556823E-1
231 226 -2.604166666662367E-1
231 230 -4.589659942234038E-1
231 231 1.304543346711134E1
231 232 -5.100784949099902
231 233 -1.5127027151896835E-1
231 234 5.176384409164507E-1
231 235 -5.254565800877958E-1
231 236 4.014957753953743E-1
231 237 -8.601626538601255E-1
231 238 6.843137620833104E-1
231 269 1.0153963951422815
231 270 -9.667153950161572
231 271 3.6264156969367205
231 272 -5.076981975714643E-1
231 273 3.6079868141006727E-1
231 274 5.677445324720068E-1
231 275 -4.5937437388895364E-1
231 276 -3.7831611282718427
231 277 1.0081842043618972
232 224 -6.770833333289686E-1
232 225 -3.6458333333401E-1
232 226 8.133928571354102E-1
232 230 1.6157928652714348
232 231 -5.100784949099902
232 232 2.1735249543321387E1
232 233 -9.104225002711014E-2
232 234 -3.7294845887313477E-1
232 235 5.781956116160727E-1
232 236 -7.510979112627026E-1
232 237 1.5734723075309631
232 238 4.703979311232901E-1
232 269 -1.9118872505571165
232 270 2.5847490302744074
232 271 -1.9940303748987667E1
232 272 9.559436252791675E-1
232 273 -1.0189832466726534E-1
232 274 -1.2117938596843105
232 275 8.593742546252947E-1
232 276 1.7819937281689422
232 277 -2.4451383345241826
233 230 -3.7518396662070286E-1
233 231 -1.5127027151896835E-1
233 232 -9.104225002711014E-2
233 233 9.834554069391952
233 234 -4.958476271993665E-1
233 235 1.4707637236114262
233 272 -5.353596348131079
233 273 6.796114818031709E-1
233 274 -2.247702189628071
233 275 -9.070504966383093E-1
233 276 1.0326058228444601
233 277 -3.618203039877015E-1
233 390 -1.5213723759368845
233 391 4.67229636103923E-2
233 392 -4.994893754732836E-1
233 406 -1.2709099623843287E-1
233 407 -4.530743212019811E-1
233 408 1.4984681264182755
233 414 -1.5502598858265442
233 415 -6.587480483377077E-1
233 416 2.3082226908646505E-1
234 230 1.4039639514647975E-1
234 231 5.176384409164507E-1
234 232 -3.7294845887313477E-1
234 233 -4.958476271993665E-1
234 234 1.079849306358523E1
234 235 -4.306655217965393
234 272 1.117111481801471
234 273 -5.3222938138474145
234 274 2.799207673105173
234 275 1.03260582284446
234 276 -1.6008139176621317
234 277 2.880006407737578E-1
234 390 -3.907770363879078E-1
234 391 5.597638446531408E-2
234 392 -5.518956493597834E-1
234 406 -7.447409878674291E-1
234 407 -1.4795935242753663E-1
234 408 9.116393290311874E-1
234 414 -6.587480483377075E-1
234 415 -4.3010408050299125
234 416 1.2326516832881933
235 230 -4.552112501333164E-1
235 231 -5.254565800877958E-1
235 232 5.781956116160727E-1
235 233 1.4707637236114262
235 234 -4.306655217965393
235 235 1.3937744150086921E1
235 272 -2.2477021896280713
235 273 1.8319457683469986
235 274 -1.058318864567999E1
235 275 -9.326653045277786E-1
235 276 1.1028409870787947
235 277 2.6973500302563097E-1
235 390 7.135562506679388E-2
235 391 -3.994740909066453E-1
235 392 2.83429817606072E-1
235 406 1.4984681264182758
235 407 1.6759170998607048E-1
235 408 -2.1849289736940065
235 414 5.949912691926713E-1
235 415 2.129207423547971
235 416 -2.3009869629607023
236 224 -1.1254829607376988
236 225 -1.5058501167615237
236 226 3.3043856753338496E-1
236 230 -5.400637350647182E-2
236 231 4.014957753953743E-1
236 232 -7.510979112627026E-1
236 236 3.502065420375546E1
236 237 -1.1445742636608451
236 238 -1.1373190012601528
236 239 -7.168768276687574E-1
236 240 -1.7965095080869267
236 241 -1.5974877939291745
236 242 3.538935940696786E-1
236 243 1.7202350727980886E-1
236 244 1.572718282313488
236 248 -8.417272564640475
236 249 1.4474442898846778
236 250 8.024392932706281E-1
236 269 -5.437556313869836
236 270 -3.421958198510481E-1
236 271 7.409465796685591E-1
236 275 -1.1829776882568371E1
236 276 1.1728422784913377
236 277 3.065965395340845E-1
236 280 -3.949361443882695
236 281 2.11420747923946
236 282 1.0693784871729202
236 283 1.8081468627417907
236 284 1.0598281317386542
236 285 -2.0463900912215798
236 286 -6.850899136082978
236 287 -1.6527151876621535
236 288 -3.212859314001682
236 292 2.067559191175651
236 293 1.412630690842874
236 294 1.8703547073082114
236 301 -8.690213487853032E-1
236 302 -1.338627256849687
236 303 2.052281654874015
237 224 -1.5058501167615232
237 225 -1.263225474508289
237 226 6.792616672405514E-1
237 230 4.014957753953742E-1
237 231 -8.601626538601255E-1
237 232 1.5734723075309631
237 236 -1.1445742636608451
237 237 3.2743537679679505E1
237 238 2.5464901417151724
237 239 -1.7965095080869253
237 240 -7.193031796597713E-1
237 241 -5.578113559303253E-1
237 242 1.7202350727980895E-1
237 243 6.993013127997473E-1
237 244 -7.508398210258121E-1
237 248 1.4474442898846767
237 249 -3.8831125995417217
237 250 8.952851393783709E-2
237 269 -3.421958198510477E-1
237 270 -1.1212002813215765E1
237 271 -9.206998869217404E-1
237 275 1.1728422784913373
237 276 -4.003754629683751
237 277 3.158023010579061E-2
237 280 2.114207479239463
237 281 -9.044189319345701
237 282 -2.8690428917593254
237 283 1.0598281317386546
237 284 2.5572720163467113
237 285 2.22876987446525
237 286 -1.6527151876621544
237 287 -5.141398737700072
237 288 -2.1432944182981526
237 292 1.4126306908428734
237 293 2.0843885688145662
237 294 -2.4388404827833208
237 301 -1.3386272568496862
237 302 -1.957350170125339
237 303 2.5314261217231127
238 224 -2.6479952769856313E-1
238 225 8.402357200479804E-2
238 226 4.0561230725267816E-1
238 230 -3.869289111564961E-1
238 231 6.843137620833104E-1
238 232 4.703979311232901E-1
238 236 -1.1373190012601528
238 237 2.5464901417151724
238 238 2.9707975857314032E1
238 239 -1.0729027080693456
238 240 -3.2648470811918906E-2
238 241 3.8945396756019116E-2
238 242 6.839641963474548E-1
238 243 -3.868441606965654E-1
238 244 2.0072936693408705
238 248 8.024392932706281E-1
238 249 8.95285139378365E-2
238 250 -5.90033558945502
238 269 7.409465796685587E-1
238 270 -9.206998869217409E-1
238 271 -6.453853145922091
238 275 1.139929872861328
238 276 -2.0651500798569908E-1
238 277 -4.467677034047547
238 280 8.312832490776264E-1
238 281 -2.0357095584320826
238 282 -5.226371121468471
238 283 -2.04639009122158
238 284 2.22876987446525
238 285 4.304810366628987
238 286 -3.2128593140016815
238 287 -2.1432944182981517
238 288 -9.426578193400939
238 292 1.8703547073082114
238 293 -2.4388404827833208
238 294 -1.4946994189985336
238 301 2.052281654874012
238 302 2.531426121723113
238 303 -3.9655210251232775
239 236 -7.168768276687574E-1
239 237 -1.7965095080869253
239 238 -1.0729027080693456
239 239 2.1744288763051838E1
239 240 1.035062784273845E-2
239 241 -2.3071620945885885
239 275 -2.8248131292206615
239 276 6.399446483694626E-1
239 277 2.0420258442376282E-1
239 278 1.3414382982393795
239 279 -3.2933130515541253E-2
239 280 -5.213631989539166
239 281 6.362171332482176E-1
239 282 5.665654049564839E-1
239 301 -5.649010592937651
239 302 -9.716996135737716E-17
239 303 1.250630836258709E-15
239 334 2.5391272953759952E-2
239 345 -2.95573615120875
239 346 4.8566858459140433E-1
239 393 -2.168525390033863
239 414 -4.40961134543061
239 415 1.3370841904209896
239 416 2.156561359201821
240 236 -1.7965095080869267
240 237 -7.193031796597713E-1
240 238 -3.2648470811918906E-2
240 239 1.035062784273845E-2
240 240 2.176357945948066E1
240 241 2.4737856073885385
240 275 6.399446483694623E-1
240 276 -6.999359772828505
240 277 -2.630103186603301
240 278 -2.5846574452430193
240 279 -4.062609548216286E-1
240 280 6.362171332482189E-1
240 281 -1.0451920147436216
240 282 1.3485988616913525E-1
240 301 -8.17706894113633E-17
240 302 -5.649010592937651
240 303 -1.6536691501580395E-15
240 334 1.3414382982393784
240 345 -2.168525390033863
240 346 1.0993859301684683
240 393 -2.9678679111190585
240 414 1.3370841904209905
240 415 -1.7981885429490316
240 416 -6.390188114892911E-1
241 236 -1.5974877939291745
241 237 -5.578113559303253E-1
241 238 3.8945396756019116E-2
241 239 -2.3071620945885885
241 240 2.4737856073885385
241 241 2.5631282262280408E1
241 275 3.5838091830012375E-1
241 276 -3.6235149614803754
241 277 -5.343806748985758
241 278 4.797433848398034E-1
241 279 3.0045120581347884E-1
241 280 -4.248240725231619E-1
241 281 2.881715211606925E-1
241 282 -9.088754586621578E-1
241 301 5.861269550390231E-16
241 302 -6.428030412157033E-16
241 303 -1.4122526482344124E1
241 334 -3.941790445401866E-1
241 345 1.322879728194689
241 346 -1.314922314096268
241 393 1.9394860700539849
241 414 3.042392359086294
241 415 -9.998602660323159E-1
241 416 -4.280547860761595
242 224 8.743055555474546E-1
242 225 6.874999999972606E-2
242 226 -2.604166666630477E-1
242 236 3.538935940696786E-1
242 237 1.7202350727980895E-1
242 238 6.839641963474548E-1
242 242 2.0159424266956798E1
242 243 -1.9623041546028086E-1
242 244 -5.0989168783437595
242 245 7.525794144165404E-1
242 246 -6.50849258349544E-2
242 247 -5.259621544303964E-1
242 248 -1.8518697219630067E1
242 249 4.3491507415995523E-1
242 250 3.6242922846662973
242 251 -1.1722915673780556
242 252 -2.1745753707997795E-1
242 253 5.688062385946451E-1
242 280 -2.4492140439823418
242 281 -1.9691570306427736E-1
242 282 1.0082329798288059
243 224 6.250000000362285E-3
243 225 6.868055555493632E-1
243 226 -2.604166666649832E-1
243 236 1.7202350727980886E-1
243 237 6.993013127997473E-1
243 238 -3.868441606965654E-1
243 242 -1.9623041546028086E-1
243 243 1.944194393556315E1
243 244 1.6149226137344228
243 245 5.991507416377306E-2
243 246 3.6998294370861484E-1
243 247 -4.549945754118376E-1
243 248 3.0991507416122765E-1
243 249 -1.829651452113251E1
243 250 -1.9109772167288224
243 251 -1.5495753708061416E-1
243 252 -1.2833829166268347
243 253 9.554886083644119E-1
243 280 -1.969157030642774E-1
243 281 -1.6181363098615242
243 282 4.428213974033738E-1
244 224 -3.6458333332736304E-1
244 225 -6.770833333286987E-1
244 226 2.1201388888712214
244 236 1.572718282313488
244 237 -7.508398210258121E-1
244 238 2.0072936693408705
244 242 -5.0989168783437595
244 243 1.6149226137344228
244 244 4.573636541116051E1
244 245 -3.730495737403673E-1
244 246 -9.099891508259136E-2
244 247 1.5742885855971749
244 248 2.582625618010234
244 249 -1.9109772167288224
244 250 -4.448717590730016E1
244 251 -1.0083661854122106E-1
244 252 9.55488608364412E-1
244 253 -3.835512489332647
244 280 1.7820425036289869
244 281 8.594880640670899E-1
244 282 -3.115398158336971
245 242 7.525794144165404E-1
245 243 5.991507416377306E-2
245 244 -3.730495737403673E-1
245 245 1.255352447040728E1
245 246 -2.094983335213082E-1
245 247 -4.301135584948019
245 251 -9.699768938800405
245 252 4.778065281097464E-1
245 253 2.791244877117315
245 278 -2.822111696818436E-1
245 279 1.2329258779220886
245 280 2.8948242620596004E-1
245 281 4.4191253010518694E-1
245 282 2.8673170354871175E-1
245 304 7.161553178850593E-1
245 305 -1.6938694376905736E-1
245 306 -5.536651595706088E-1
245 323 -2.142661707398432
245 324 -3.1853768540649696E-1
245 325 9.169478596708807E-1
245 334 -2.4693109827160034
246 242 -6.50849258349544E-2
246 243 3.6998294370861484E-1
246 244 -9.099891508259136E-2
246 245 -2.094983335213082E-1
246 246 1.2138537938151606E1
246 247 1.4683971868255408
246 251 2.903065281116548E-1
246 252 -9.715113731427333
246 253 -2.244289562767973
246 278 -1.2875444097450066
246 279 2.307339166114804E-1
246 280 4.4191253010518694E-1
246 281 5.852790729890758E-1
246 282 -3.613046534827442E-1
246 304 1.811305622903392E-2
246 305 4.129003197019043E-2
246 306 -4.9873101394902547E-1
246 323 -1.9353768540776947E-1
246 324 -2.1324318456471474
246 325 1.496193041845312
246 334 -2.822111696818434E-1
247 242 -5.259621544303964E-1
247 243 -4.549945754118376E-1
247 244 1.5742885855971749
247 245 -4.301135584948019
247 246 1.4683971868255408
247 247 2.5786568768162788E1
247 251 1.8239829723651702
247 252 -2.2442895627679738
247 253 -2.3091212757300553E1
247 278 5.947295769407266E-1
247 279 -2.540823842645264
247 280 1.0995497524601254
247 281 -9.312829551380171E-1
247 282 2.5477807193488875
247 304 -3.992213037298771E-1
247 305 7.124728770624772E-2
247 306 1.8521925218000228
247 323 1.7290024063109932E-1
247 324 1.496193041845313
247 325 -6.128793994963054
247 334 2.129886077651899
248 224 -9.279552825706914E-1
248 225 5.864649821555522E-1
248 226 -1.8264893236280982E-1
248 236 -8.417272564640475
248 237 1.4474442898846767
248 238 8.024392932706281E-1
248 242 -1.8518697219630067E1
248 243 3.0991507416122765E-1
248 244 2.582625618010234
248 248 3.0925259447781592E1
248 249 -1.1152504998699815
248 250 -5.460167484907126
248 251 9.236806645415323E-1
248 252 1.3677452646978677E-1
248 253 -3.558790537487936E-1
248 280 2.2406022333572917E-2
248 281 -1.656892796200238
248 282 -9.185540982126812E-1
248 283 -2.5970718796297536
248 284 -9.093617063622464E-1
248 285 2.060991683387533
248 286 -1.4103491881857082
248 287 1.2009061297612242
248 288 1.471192974563018
249 224 1.3222829873659997E-1
249 225 -2.2906653328275484
249 226 4.1221978861966097E-1
249 236 1.4474442898846778
249 237 -3.8831125995417217
249 238 8.95285139378365E-2
249 242 4.3491507415995523E-1
249 243 -1.829651452113251E1
249 244 -1.9109772167288224
249 248 -1.1152504998699815
249 249 2.7990621115544194E1
249 250 2.2061086683883735
249 251 6.787912768994228E-1
249 252 -7.458589498402795E-1
249 253 -2.462577967995684E-1
249 280 -1.6568927962002382
249 281 5.998618228794549E-1
249 282 -1.0248349510566143E-1
249 283 -5.801250229420226E-1
249 284 -1.4061994929686654
249 285 1.0988982458627208
249 286 6.588893793315899E-1
249 287 -1.9681320421129207
249 288 -1.5470367081745395
250 224 4.692192389404229E-2
250 225 4.122197886196599E-1
250 226 -2.406215887240456
250 236 8.024392932706281E-1
250 237 8.952851393783709E-2
250 238 -5.90033558945502
250 242 3.6242922846662973
250 243 -1.9109772167288224
250 244 -4.448717590730016E1
250 248 -5.460167484907126
250 249 2.2061086683883735
250 250 5.552061053366548E1
250 251 -1.644476207706596E-1
250 252 -2.462577967995681E-1
250 253 1.7125942512785755
250 280 -9.185540982126811E-1
250 281 -1.0248349510566203E-1
250 282 2.9089816029458406
250 283 1.3849922557065657
250 284 1.0988982458627201
250 285 -3.943637836539997
250 286 6.84523446352936E-1
250 287 -1.5470367081745382
250 288 -3.404821167354269
251 242 -1.1722915673780556
251 243 -1.5495753708061416E-1
251 244 -1.0083661854122106E-1
251 245 -9.699768938800405
251 246 2.903065281116548E-1
251 247 1.8239829723651702
251 248 9.236806645415323E-1
251 249 6.787912768994228E-1
251 250 -1.644476207706596E-1
251 251 2.6402272957982063E1
251 252 -2.5772917861980056
251 253 -1.4314105423923877
251 278 -2.1236931728292303
251 279 -9.546475306326849E-1
251 280 -9.509098402490812
251 281 3.313707311466962
251 282 -2.0952356310077453
251 283 -3.174484062171579
251 284 6.244824633656054E-1
251 285 9.221595870767352E-1
251 301 2.7028895476273906E-2
251 302 6.886755867499912E-3
251 303 2.100751908012319
251 323 7.239301198645667E-1
251 324 8.231932407983927E-2
251 325 -5.299056728113573E-1
251 334 -1.3058121537497103
251 335 -3.2154575132738725
251 336 -1.405511636831363E-1
251 337 4.2958914870183224E-1
252 242 -2.1745753707997795E-1
252 243 -1.2833829166268347
252 244 9.55488608364412E-1
252 245 4.778065281097464E-1
252 246 -9.715113731427333
252 247 -2.2442895627679738
252 248 1.3677452646978677E-1
252 249 -7.458589498402795E-1
252 250 -2.462577967995681E-1
252 251 -2.5772917861980056
252 252 3.0946371620221647E1
252 253 1.0102400420341663E-1
252 278 -1.340862711707388
252 279 -6.570173061581132E-1
252 280 3.313707311466964
252 281 -9.615037840955742
252 282 2.1581471481506296
252 283 1.3064118355569843E-1
252 284 -5.716573377338125
252 285 -2.224347560875775
252 301 6.886755867500285E-3
252 302 4.161359389105349
252 303 -6.608258324600977E-1
252 323 6.386606038891098E-1
252 324 -1.551258903681353
252 325 -7.049341363484418E-2
252 334 -2.123693172829232
252 335 2.1396558674840666E-1
252 336 -5.139642577749942
252 337 2.8885717119779137
253 242 5.688062385946451E-1
253 243 9.554886083644119E-1
253 244 -3.835512489332647
253 245 2.791244877117315
253 246 -2.244289562767973
253 247 -2.3091212757300553E1
253 248 -3.558790537487936E-1
253 249 -2.462577967995684E-1
253 250 1.7125942512785755
253 251 -1.4314105423923877
253 252 1.0102400420341663E-1
253 253 4.0421021790506494E1
253 278 -6.570173061581123E-1
253 279 1.3109817596542785
253 280 -2.0952356310077462
253 281 2.158147148150629
253 282 -8.462626412170593
253 283 1.6451043688302341E-1
253 284 -2.2243475608757746
253 285 -4.846220758673649
253 301 2.1007519080123203
253 302 -6.608258324600984E-1
253 303 1.0571903570793963
253 323 -4.41899379753511E-1
253 324 -7.049341363484524E-2
253 325 2.1040258670393177
253 334 -9.546475306326856E-1
253 335 -3.462413230721797E-1
253 336 2.8885717119779133
253 337 -6.370241608080615
254 224 1.7340472329674908E-2
254 225 4.052258375214263E-1
254 226 9.141680974462255E-2
254 227 7.309649528162178E-1
254 228 5.15964756438222E-1
254 229 2.166065924153504E-1
254 254 1.581489791946154E1
254 255 5.036907091648402
254 256 -1.7406050576198834E-1
254 269 -4.6692229698961674E-1
254 270 -2.504896281726962E-1
254 271 -1.1280935850589158
254 286 -8.244242230815313
254 287 -3.377419828361193
254 288 -1.3402977901481545
254 292 -1.4622276308174307
254 293 -8.981925141972257E-1
254 294 4.324391766385984E-1
254 298 -8.364026338695654
254 299 -8.571826585528651E-1
254 300 9.609915569082049E-1
254 312 1.9742151527105767
254 313 -5.748130563240701E-1
254 314 9.409977452622827E-1
255 224 7.136291876075614E-1
255 225 2.165207375635302E-1
255 226 -6.958720686797961E-1
255 227 3.239871841598615E-1
255 228 1.368107196449208E-1
255 229 -1.7944090135875548E-1
255 254 5.036907091648402
255 255 1.820386267265826E1
255 256 5.513737944292955E-1
255 269 -8.992460057236014E-1
255 270 6.126985505873657E-1
255 271 -1.2108180901351298
255 286 -2.294086495028505
255 287 -1.3916643640834186E1
255 288 -1.234334202433623
255 292 -1.643714941918737
255 293 -3.742993431584719E-1
255 294 9.575937547186181E-2
255 298 -1.3750929476686267
255 299 -5.11478342656326
255 300 1.8067293795421056
255 312 1.376169269236447E-1
255 313 2.3583373010183759E-1
255 314 8.666027131640414E-1
256 224 4.570840487197193E-1
256 225 -1.7503873534830683E-1
256 226 -1.1924957069051378
256 227 -3.042267409220153E-1
256 228 -4.9346247873829546E-1
256 229 -8.33515954463836E-1
256 254 -1.7406050576198834E-1
256 255 5.513737944292955E-1
256 256 1.3189616886420845E1
256 269 -1.1280935850589155
256 270 -5.499698758527249E-1
256 271 -3.6214587082762195E-1
256 286 -8.194644568107899E-1
256 287 -1.2343342024336226
256 288 -6.723114003905431
256 292 4.324391766385993E-1
256 293 -1.1105238048008714E-1
256 294 6.32874174936591E-1
256 298 9.609915569082045E-1
256 299 1.1458811652596994
256 300 -5.617479300960713
256 312 5.753305062871864E-1
256 313 8.666027131640417E-1
256 314 9.062597757053024E-1
257 227 -2.6466481245757173E-1
257 228 -8.96382674931441E-1
257 229 -7.501639523737389E-1
257 257 3.6673051517008886E1
257 258 -5.232877929017106E-1
257 259 2.6289566513135103
257 260 -7.190425060962753E-1
257 261 -1.79719183224229
257 262 1.5977434372738548
257 263 -1.722219024653366
257 264 1.4258660099280829
257 265 7.082683106484328E-1
257 283 1.0420846363550549
257 284 1.8738117317653846
257 285 2.0040219114991498
257 286 6.900242494246194E-1
257 287 -4.313262597544706E-1
257 288 2.4467931244897296
257 289 -1.0190685239280821E1
257 290 7.959137336346815E-1
257 291 -3.048747663639679E-1
257 292 -1.1893445030464866
257 293 2.3448336326119996
257 294 -3.106772543139428
257 298 -5.20301910394016
257 299 -3.3127768086983562
257 300 3.8414190176081675E-1
257 301 -9.66101968372676E-1
257 302 -1.9768432496899804
257 303 -2.4943662117818475
257 312 -1.2535440224855652E1
257 313 -3.1502409401812825E-1
257 314 -4.3704200182803E-1
257 320 -1.6459369500076217
257 321 2.247441221734437E-1
257 322 8.191637784131751E-14
257 326 3.5391598032324717E-1
257 327 1.7206961802829865E-1
257 328 -1.5734723075522903
257 342 -4.3226220504011765
257 343 2.4155938640944843
257 344 -1.103233553946271
258 227 -8.963826749314407E-1
258 228 -2.545836011658507E-1
258 229 -4.5320751337093407E-1
258 257 -5.232877929017106E-1
258 258 3.2847032460697896E1
258 259 -1.4784289109394873
258 260 -1.7971918322422895
258 261 -7.190425061094978E-1
258 262 5.571208762959443E-1
258 263 1.4258660099280827
258 264 -4.724176960905401
258 265 -1.958949220864528
258 283 1.8738117317653853
258 284 8.385662905164061E-1
258 285 -1.6457392446153662
258 286 -4.3132625975447E-1
258 287 1.3236916528136646
258 288 1.5697668304350747
258 289 7.959137336346815E-1
258 290 -3.090294911791677
258 291 -1.6083849155279384E-2
258 292 2.3448336326119996
258 293 -8.09948354922886E-1
258 294 2.6022400764127855
258 298 -3.3127768086983593
258 299 -8.374822840066429
258 300 9.233098395777621E-1
258 301 -1.9768432496899806
258 302 -1.4052002674507789
258 303 -2.7650332009201604
258 312 -3.150240940181281E-1
258 313 -5.6088726829791
258 314 -9.48685293592667E-1
258 320 2.247441221734434E-1
258 321 -1.1436569648554924
258 322 8.225892131649828E-15
258 326 1.7206961802829868E-1
258 327 6.99411529050759E-1
258 328 7.510979112593238E-1
258 342 2.4155938640944834
258 343 -9.57810284283161
258 344 2.8625916994775227
259 227 -1.5492585714179163E-1
259 228 1.4203058186481932E-1
259 229 1.4973258955204631
259 257 2.6289566513135103
259 258 -1.4784289109394873
259 259 2.9720727710758492E1
259 260 1.0727538919352242
259 261 3.213133095416654E-2
259 262 3.898839457382404E-2
259 263 3.4409931054222487E-1
259 264 -1.069790675416875
259 265 -2.016503196338303
259 283 2.0040219114991498
259 284 -1.6457392446153656
259 285 2.7090672518847456
259 286 2.4467931244897314
259 287 1.5697668304350745
259 288 -2.9936581723071383
259 289 -1.1382080996912105
259 290 2.2201138893621047E-1
259 291 -3.4108293843691135
259 292 -3.1067725431394275
259 293 2.602240076412785
259 294 -3.776022748817993
259 298 3.841419017608161E-1
259 299 9.233098395777615E-1
259 300 -5.2841745359571775
259 301 -2.4943662117818475
259 302 -2.7650332009201604
259 303 -3.3057810016202254
259 312 -4.3704200182803277E-1
259 313 -9.486852935926674E-1
259 314 -7.302953051388638
259 320 8.306403064115489E-14
259 321 8.791245393386076E-15
259 322 -2.469231424898474
259 326 -6.84313762107452E-1
259 327 3.8692891115344874E-1
259 328 2.007991907582134
259 342 -8.651383158509747E-1
259 343 2.0292583661502794
259 344 -5.414947644622596
260 257 -7.190425060962753E-1
260 258 -1.7971918322422895
260 259 1.0727538919352242
260 260 2.1764436907377178E1
260 261 1.2747680306728834E-2
260 262 2.310259211214702
260 289 -2.824878007335028
260 290 6.401582286010594E-1
260 291 -2.0420258442376707E-1
260 301 -5.651818238172492
260 302 2.6272755139380662E-17
260 303 -8.761716400808165E-16
260 340 3.750075567326899E-2
260 341 3.60999916476952E-2
260 342 -5.229443729222543
260 343 6.401582285914862E-1
260 344 -5.6884357387295E-1
260 356 -4.8950557729908534E-1
260 371 1.3375304395748842
260 399 -2.9665396506705646
260 400 -2.1709331843960897
260 431 -4.41021553155354
260 432 1.33753043956422
260 433 -2.1565613592018185
261 257 -1.79719183224229
261 258 -7.190425061094978E-1
261 259 3.213133095416654E-2
261 260 1.2747680306728834E-2
261 261 2.1764436907407497E1
261 262 -2.469750436560158
261 289 6.401582286010604E-1
261 290 -7.000817897438813
261 291 2.630103186603302
261 301 3.9228965326720894E-17
261 302 -5.651818238172491
261 303 -1.843358148803175E-16
261 340 1.3375304395748842
261 341 4.0337376068880415E-1
261 342 6.401582285914871E-1
261 343 -1.0535038391260565
261 344 -1.3368673873347847E-1
261 356 -1.1011899144419266
261 371 -2.5747936038734562
261 399 -2.1709331843960893
261 400 -2.966539650691854
261 431 1.3375304395642196
261 432 -1.7979211719953274
261 433 6.390188114892914E-1
262 257 1.5977434372738548
262 258 5.571208762959443E-1
262 259 3.898839457382404E-2
262 260 2.310259211214702
262 261 -2.469750436560158
262 262 2.564136333621727E1
262 289 -3.5838091830013E-1
262 290 3.6235149614803754
262 291 -5.343395489795921
262 301 -7.531425579989922E-16
262 302 -3.5604722373088E-17
262 303 -1.4129545595431228E1
262 340 3.969414461935364E-1
262 341 3.087471161371321E-1
262 342 4.245682010007177E-1
262 343 -2.878650726081784E-1
262 344 -9.149600692942961E-1
262 356 -1.321389989311587
262 371 -4.824572391959994E-1
262 399 -1.3287390182963912
262 400 -1.9404233554443004
262 431 -3.042392359086289
262 432 9.998602660323171E-1
262 433 -4.279807703095194
263 227 -3.4934104127226345E-1
263 228 2.7531090559413857E-2
263 229 -1.7388802083247448E-1
263 257 -1.722219024653366
263 258 1.4258660099280827
263 259 3.4409931054222487E-1
263 263 8.2866528954255
263 264 -1.2128825894959809E-1
263 265 -1.7521397342229345E-1
263 266 -1.0790007522530054
263 267 2.4930081463346732E-1
263 268 -2.4374741599723893E-1
263 289 -1.5216449076935297
263 290 -1.6314151871591471
263 291 -3.9370378226344754E-1
263 292 -1.275615822442349
263 293 -5.67481574893518E-2
263 294 -7.290808307339208E-1
263 298 -2.338831347110987
263 299 1.0675368847713351E-1
263 300 1.3715347127071507
264 227 3.028419961717524E-1
264 228 4.765916755647527E-1
264 229 4.8790959821201363E-1
264 257 1.4258660099280829
264 258 -4.724176960905401
264 259 -1.069790675416875
264 263 -1.2128825894959809E-1
264 264 1.0002030631700734E1
264 265 3.6203387410238337
264 266 -2.686094744822954E-1
264 267 5.06377229067671E-1
264 268 3.279485434323121E-1
264 289 -1.6314151871591465
264 290 -3.3251343323110696
264 291 -5.671379304954457E-1
264 292 -3.32059063101691E-1
264 293 -2.045896983223188
264 294 -2.065372439357405
264 298 6.246639775928962E-1
264 299 -8.897912598934984E-1
264 300 -7.338958373984339E-1
265 227 2.4277864583124156E-1
265 228 3.852645089278375E-1
265 229 9.024027380107384E-1
265 257 7.082683106484328E-1
265 258 -1.958949220864528
265 259 -2.016503196338303
265 263 -1.7521397342229345E-1
265 264 3.6203387410238337
265 265 9.996955345832001
265 266 -6.079164161034465E-1
265 267 5.562588745975604E-1
265 268 -5.276001977154582E-3
265 289 -8.10370448927164E-1
265 290 -1.3409474543024922
265 291 -1.1849374866003153
265 292 -7.290808307339207E-1
265 293 -1.1889178262661821
265 294 -4.713667250592315
265 298 1.371534712707151
265 299 -7.304762311602897E-2
265 300 -2.9789741483346512
266 263 -1.0790007522530054
266 264 -2.686094744822954E-1
266 265 -6.079164161034465E-1
266 266 1.0966631961379985E1
266 267 -2.7860851433960987E-1
266 268 1.0830199146356534
266 289 -3.804608280840904
266 290 1.6019690189033757
266 291 5.901170775622222E-1
266 292 9.12779831664076E-1
266 293 5.609337639969282E-1
266 294 1.0885328038565025
266 295 -4.618485940684435
266 296 -6.420365903390609E-1
266 297 -1.245918742491805
266 403 -1.916199916520272
266 404 4.8323531606019876E-2
266 405 -5.313710687528885E-1
266 431 -4.611169027454423E-1
266 432 -1.0219717353453575
266 433 -3.76463568706238E-1
267 263 2.4930081463346732E-1
267 264 5.06377229067671E-1
267 265 5.562588745975604E-1
267 266 -2.7860851433960987E-1
267 267 1.3480462337356277E1
267 268 4.538738311752578
267 289 1.6019690189033735
267 290 -7.234463821525213
267 291 -8.63414967155062E-1
267 292 1.013421008895261
267 293 1.9946220837681636
267 294 -3.1725202773502476E-1
267 295 -1.1599468794548222
267 296 -5.856746775397611
267 297 -3.2806197287464194
267 403 -4.041637132923131E-1
267 404 -2.848166140266378E-1
267 405 2.3185723159889798E-1
267 431 -1.021971735345357
267 432 -2.6054344392426505
267 433 -8.655676943125296E-1
268 263 -2.4374741599723893E-1
268 264 3.279485434323121E-1
268 265 -5.276001977154582E-3
268 266 1.0830199146356534
268 267 4.538738311752578
268 268 1.364610518851617E1
268 289 1.160962078102299
268 290 -1.6782553134600982
268 291 -3.221535447462367
268 292 1.0885328038565025
268 293 2.9170630559513405E-1
268 294 6.103049213606965E-1
268 295 -1.2459187424918041
268 296 -2.1557536573213945
268 297 -9.632874801177115
268 403 -1.1022160692929663
268 404 4.377392445737762E-1
268 405 -5.636372440365095E-1
268 431 -7.406325688124454E-1
268 432 -1.7621234345723071
268 433 -8.330866152237195E-1
269 224 -3.498112835206785
269 225 -3.119865732587144E-1
269 226 1.9380300983331216
269 230 -9.147553038528915
269 231 1.0153963951422815
269 232 -1.9118872505571165
269 236 -5.437556313869836
269 237 -3.421958198510477E-1
269 238 7.409465796685587E-1
269 254 -4.6692229698961674E-1
269 255 -8.992460057236014E-1
269 256 -1.1280935850589155
269 269 2.442010044435837E1
269 270 7.97684307915703E-1
269 271 -4.941586726101334E-1
269 272 -1.265030312000542
269 273 6.955082385770286E-1
269 274 4.6963407942079316E-2
269 275 -3.6046207207025893E-1
269 276 -1.9798283387477467
269 277 -6.124150402827579E-2
269 286 8.549433547574983E-1
269 287 2.3616381399869044
269 288 -7.832954492784332E-1
269 292 -5.09940693044992
269 293 -1.3369703440408074
269 294 1.6527363755891158
270 224 2.713467600743582E-1
270 225 -1.2139213427288837
270 226 -2.4579028617207754E-1
270 230 7.237297284768338E-1
270 231 -9.667153950161572
270 232 2.5847490302744074
270 236 -3.421958198510481E-1
270 237 -1.1212002813215765E1
270 238 -9.206998869217409E-1
270 254 -2.504896281726962E-1
270 255 6.126985505873657E-1
270 256 -5.499698758527249E-1
270 269 7.97684307915703E-1
270 270 2.9349589810441323E1
270 271 -5.495055439865507
270 272 4.6751861026124664E-2
270 273 8.950972937868E-1
270 274 -4.427169053336682E-1
270 275 -1.979828338747747
270 276 -1.0999510053579455
270 277 -5.511885612320596E-1
270 286 2.361638139986904
270 287 -3.78749009358071E-1
270 288 1.5980396322433417
270 292 -1.6286370107084323
270 293 -7.2856075339932564
270 294 4.022632292860029
271 224 1.9380300983331211
271 225 3.494478090636756E-1
271 226 -3.0367466701667123
271 230 -1.9118872505571158
271 231 3.6264156969367205
271 232 -1.9940303748987667E1
271 236 7.409465796685591E-1
271 237 -9.206998869217404E-1
271 238 -6.453853145922091
271 254 -1.1280935850589158
271 255 -1.2108180901351298
271 256 -3.6214587082762195E-1
271 269 -4.941586726101334E-1
271 270 -5.495055439865507
271 271 3.609627714260908E1
271 272 4.6963407942079455E-2
271 273 -3.77106786287017E-1
271 274 7.419031577839371E-1
271 275 -6.1241504028275884E-2
271 276 -5.511885612320597E-1
271 277 8.282209381846325E-1
271 286 -7.832954492784336E-1
271 287 1.5980396322433417
271 288 8.291699495105166E-1
271 292 1.6527363755891162
271 293 2.9809656261977153
271 294 -8.702521752184083
272 230 1.0099822559357356E-1
272 231 -5.076981975714643E-1
272 232 9.559436252791675E-1
272 233 -5.353596348131079
272 234 1.117111481801471
272 235 -2.2477021896280713
272 269 -1.265030312000542
272 270 4.6751861026124664E-2
272 271 4.6963407942079455E-2
272 272 2.4125946101482974E1
272 273 -3.684450076248903
272 274 2.448765598346089
272 275 -8.463548621226568
272 276 3.217194619081053
272 277 -4.910090669082915E-1
272 292 -1.7459342248414815
272 293 1.3631152464324905
272 294 -1.2379306262022838
272 295 -6.478409194287298
272 296 -1.2805691740556718E-1
272 297 -3.82725015169908E-2
272 406 -2.497870164349452
272 407 6.284324531864712E-1
272 408 2.5000386715036943E-1
272 414 1.5774445377598745
272 415 -2.0524004703016745
272 416 3.1323788553793225E-1
273 230 -3.618648642386474E-1
273 231 3.6079868141006727E-1
273 232 -1.0189832466726534E-1
273 233 6.796114818031709E-1
273 234 -5.3222938138474145
273 235 1.8319457683469986
273 269 6.955082385770286E-1
273 270 8.950972937868E-1
273 271 -3.77106786287017E-1
273 272 -3.684450076248903
273 273 3.235394722886515E1
273 274 -8.08866379455673
273 275 3.2171946190810545
273 276 -1.4969983444881722E1
273 277 1.23757181084262
273 292 1.931461334868008
273 293 -1.950350753884875
273 294 1.4654346216121628
273 295 -3.3931329495817236E-1
273 296 -1.203791889157084E1
273 297 5.549533679629214
273 406 -8.574696858186237E-2
273 407 6.752765247961592E-1
273 408 -7.27311437536299E-1
273 414 -2.052400470301675
273 415 -4.572824673330977E-3
273 416 -7.895055373836838E-1
274 230 9.559436252791672E-1
274 231 5.677445324720068E-1
274 232 -1.2117938596843105
274 233 -2.247702189628071
274 234 2.799207673105173
274 235 -1.058318864567999E1
274 269 4.6963407942079316E-2
274 270 -4.427169053336682E-1
274 271 7.419031577839371E-1
274 272 2.448765598346089
274 273 -8.08866379455673
274 274 3.0621778583888787E1
274 275 -4.910090669082917E-1
274 276 1.2375718108426201
274 277 -8.908509214564104
274 292 -1.2379306262022838
274 293 7.820715263777396E-1
274 294 -2.0467765516448555
274 295 -3.8272501516990964E-2
274 296 4.64788189391769
274 297 -1.130910712591328E1
274 406 2.500038671503694E-1
274 407 -7.135911994411482E-1
274 408 8.343877297452327E-1
274 414 3.1323788553793197E-1
274 415 -7.895055373836833E-1
274 416 1.861305926068587
275 230 -1.8451372538982544
275 231 -4.5937437388895364E-1
275 232 8.593742546252947E-1
275 233 -9.070504966383093E-1
275 234 1.03260582284446
275 235 -9.326653045277786E-1
275 236 -1.1829776882568371E1
275 237 1.1728422784913373
275 238 1.139929872861328
275 239 -2.8248131292206615
275 240 6.399446483694623E-1
275 241 3.5838091830012375E-1
275 269 -3.6046207207025893E-1
275 270 -1.979828338747747
275 271 -6.1241504028275884E-2
275 272 -8.463548621226568
275 273 3.2171946190810545
275 274 -4.910090669082917E-1
275 275 3.67323611798821E1
275 276 -9.764092277317327E-2
275 277 -1.0766890842196446
275 292 -1.2703713150807485
275 293 -1.5137983320100232
275 294 -3.3022564133084273
275 295 1.481195076208406
275 296 9.946084607938085E-2
275 297 3.682514845368952
275 301 4.385777008063785E-2
275 302 4.4824044692965376E-1
275 303 -5.751949129829346E-1
275 414 -1.0756254255467972E1
275 415 -2.559646694375451
275 416 3.988563948196545E-1
276 230 -4.593743738889541E-1
276 231 -3.7831611282718427
276 232 1.7819937281689422
276 233 1.0326058228444601
276 234 -1.6008139176621317
276 235 1.1028409870787947
276 236 1.1728422784913377
276 237 -4.003754629683751
276 238 -2.0651500798569908E-1
276 239 6.399446483694626E-1
276 240 -6.999359772828505
276 241 -3.6235149614803754
276 269 -1.9798283387477467
276 270 -1.0999510053579455
276 271 -5.511885612320597E-1
276 272 3.217194619081053
276 273 -1.4969983444881722E1
276 274 1.2375718108426201
276 275 -9.764092277317327E-2
276 276 3.522046973674316E1
276 277 -7.050034740404406E-1
276 292 -1.513798332010023
276 293 3.354845556346777E-1
276 294 -2.2344623041910574
276 295 9.946084607938119E-2
276 296 4.509097071282259
276 297 -1.444987370076559
276 301 4.4824044692965337E-1
276 302 -2.0114375604328485
276 303 3.7738155923304033
276 414 -2.5596466943754503
276 415 -5.5965899045413545
276 416 8.694495605854313E-1
277 230 4.4270758796157833E-1
277 231 1.0081842043618972
277 232 -2.4451383345241826
277 233 -3.618203039877015E-1
277 234 2.880006407737578E-1
277 235 2.6973500302563097E-1
277 236 3.065965395340845E-1
277 237 3.158023010579061E-2
277 238 -4.467677034047547
277 239 2.0420258442376282E-1
277 240 -2.630103186603301
277 241 -5.343806748985758
277 269 -6.124150402827579E-2
277 270 -5.511885612320596E-1
277 271 8.282209381846325E-1
277 272 -4.910090669082915E-1
277 273 1.23757181084262
277 274 -8.908509214564104
277 275 -1.0766890842196446
277 276 -7.050034740404406E-1
277 277 2.9482917636127603E1
277 292 -3.3022564133084265
277 293 -2.234462304191058
277 294 -2.370154935008758
277 295 3.6825148453689516
277 296 -1.4449873700765585
277 297 -8.320111675937507E-1
277 301 -5.751949129829343E-1
277 302 3.7738155923304033
277 303 -1.7921084838334815
277 414 1.2321897281468985
277 415 1.2265924177289493
277 416 -4.421467658780284
278 239 1.3414382982393795
278 240 -2.5846574452430193
278 241 4.797433848398034E-1
278 245 -2.822111696818436E-1
278 246 -1.2875444097450066
278 247 5.947295769407266E-1
278 251 -2.1236931728292303
278 252 -1.340862711707388
278 253 -6.570173061581123E-1
278 278 2.7807192459878834E1
278 279 -1.0999137734221138
278 280 -8.464809677538496E-1
278 281 -4.68558167405279
278 282 1.0115881379743175
278 301 1.1569999642330508
278 302 -4.765237784605033
278 303 -4.543785779661572
278 304 5.512011079174415E-1
278 305 9.762899419322653E-1
278 306 -1.1142941833083562
278 323 2.8657761148437064
278 324 -5.992993382056269
278 325 1.2457680120113417
278 334 -1.008872234218777
278 335 -6.852974541477228E-1
278 336 4.014919941195259
278 337 -5.937230858516659E-2
278 345 1.0906155797472021
278 346 -3.1990092065297504E-1
278 361 -1.874245327451662
278 362 -8.611047272999579E-1
278 363 -3.531676203682721E-3
278 384 -9.696227151284944E-1
278 385 -5.063317902268153
278 386 4.341529580735161
278 393 -1.6399320247083904
278 487 7.843919762308008E-1
278 488 -4.577170281320352
278 489 1.2445725549063114E-1
279 239 -3.2933130515541253E-2
279 240 -4.062609548216286E-1
279 241 3.0045120581347884E-1
279 245 1.2329258779220886
279 246 2.307339166114804E-1
279 247 -2.540823842645264
279 251 -9.546475306326849E-1
279 252 -6.570173061581132E-1
279 253 1.3109817596542785
279 278 -1.0999137734221138
279 279 2.760692794370252E1
279 280 -5.338697925024291E-2
279 281 1.7825480464707533E-1
279 282 -1.6149250974531042
279 301 1.6422076815897055
279 302 -4.543785779661574
279 303 -7.761264794065061
279 304 2.7918481169049647E-1
279 305 -5.679499122849483E-1
279 306 2.935091744141359
279 323 -2.2582971007579538
279 324 1.2457680120113412
279 325 -6.033564538464383
279 334 -1.949290885555249
279 335 -2.654225727683823
279 336 -5.93723085851659E-2
279 337 -6.390153514673489E-1
279 345 2.673700552078635
279 346 -2.860157400133833
279 361 3.183728829663876E-1
279 362 7.001240527635876E-1
279 363 7.579357291154367E-1
279 384 1.8205584160692778
279 385 4.341529580735161
279 386 -1.0502062750577029E1
279 393 -5.918157903872238E-1
279 487 -6.416886792109952E-2
279 488 1.2297054585521234
279 489 -9.595746076210528E-1
280 236 -3.949361443882695
280 237 2.114207479239463
280 238 8.312832490776264E-1
280 239 -5.213631989539166
280 240 6.362171332482189E-1
280 241 -4.248240725231619E-1
280 242 -2.4492140439823418
280 243 -1.969157030642774E-1
280 244 1.7820425036289869
280 245 2.8948242620596004E-1
280 246 4.4191253010518694E-1
280 247 1.0995497524601254
280 248 2.2406022333572917E-2
280 249 -1.6568927962002382
280 250 -9.185540982126811E-1
280 251 -9.509098402490812
280 252 3.313707311466964
280 253 -2.0952356310077462
280 278 -8.464809677538496E-1
280 279 -5.338697925024291E-2
280 280 2.4193678765910445E1
280 281 -3.2035733453009403
280 282 -6.38896466678897E-1
280 283 1.2800988663342487
280 284 -9.839188196885689E-1
280 285 -1.831880549820106
280 301 -3.0252829677282724
280 302 3.817371779480387E-1
280 303 2.2499022923260936
280 334 -1.6390772331609413
281 236 2.11420747923946
281 237 -9.044189319345701
281 238 -2.0357095584320826
281 239 6.362171332482176E-1
281 240 -1.0451920147436216
281 241 2.881715211606925E-1
281 242 -1.9691570306427736E-1
281 243 -1.6181363098615242
281 244 8.594880640670899E-1
281 245 4.4191253010518694E-1
281 246 5.852790729890758E-1
281 247 -9.312829551380171E-1
281 248 -1.656892796200238
281 249 5.998618228794549E-1
281 250 -1.0248349510566203E-1
281 251 3.313707311466962
281 252 -9.615037840955742
281 253 2.158147148150629
281 278 -4.68558167405279
281 279 1.7825480464707533E-1
281 280 -3.2035733453009403
281 281 2.6552507517672712E1
281 282 1.2755047352753912E-1
281 283 -9.839188196885686E-1
281 284 2.056180955762699
281 285 -1.2816840313370261
281 301 3.8173717794803846E-1
281 302 -3.785692210344556
281 303 7.395480284597624E-1
281 334 -8.464809677538474E-1
282 236 1.0693784871729202
282 237 -2.8690428917593254
282 238 -5.226371121468471
282 239 5.665654049564839E-1
282 240 1.3485988616913525E-1
282 241 -9.088754586621578E-1
282 242 1.0082329798288059
282 243 4.428213974033738E-1
282 244 -3.115398158336971
282 245 2.8673170354871175E-1
282 246 -3.613046534827442E-1
282 247 2.5477807193488875
282 248 -9.185540982126812E-1
282 249 -1.0248349510566143E-1
282 250 2.9089816029458406
282 251 -2.0952356310077453
282 252 2.1581471481506296
282 253 -8.462626412170593
282 278 1.0115881379743175
282 279 -1.6149250974531042
282 280 -6.38896466678897E-1
282 281 1.2755047352753912E-1
282 282 2.2154829666834033E1
282 283 -1.8318805498201074
282 284 -1.2816840313370261
282 285 -1.5175424712860328
282 301 2.249902292326093
282 302 7.395480284597631E-1
282 303 -6.765853269751425
282 334 3.0375587788641156E-1
283 236 1.8081468627417907
283 237 1.0598281317386546
283 238 -2.04639009122158
283 248 -2.5970718796297536
283 249 -5.801250229420226E-1
283 250 1.3849922557065657
283 251 -3.174484062171579
283 252 1.3064118355569843E-1
283 253 1.6451043688302341E-1
283 257 1.0420846363550549
283 258 1.8738117317653853
283 259 2.0040219114991498
283 280 1.2800988663342487
283 281 -9.839188196885686E-1
283 282 -1.8318805498201074
283 283 3.373484995151912E1
283 284 -2.6182237479987553
283 285 1.720220439233427E-1
283 286 -1.211792969667235E1
283 287 3.8493040962361125
283 288 1.1497044302760921E-1
283 301 -1.4806506049662271E1
283 302 -8.394886832555424E-1
283 303 1.2348254825915145E-1
283 309 -3.2710986647419107
283 310 3.982574690862613E-1
283 311 -3.2168314137675996E-1
283 312 -3.4181122950807437
283 313 -1.0568627443040455
283 314 -1.4886996471055327
283 335 -6.542383298890113E-1
283 336 -2.9410219852930347E-1
283 337 5.609624012588735E-2
283 342 2.1742606608974167
283 343 -9.391213956638773E-1
283 344 1.6685575500992518
284 236 1.0598281317386542
284 237 2.5572720163467113
284 238 2.22876987446525
284 248 -9.093617063622464E-1
284 249 -1.4061994929686654
284 250 1.0988982458627201
284 251 6.244824633656054E-1
284 252 -5.716573377338125
284 253 -2.2243475608757746
284 257 1.8738117317653846
284 258 8.385662905164061E-1
284 259 -1.6457392446153656
284 280 -9.839188196885689E-1
284 281 2.056180955762699
284 282 -1.2816840313370261
284 283 -2.6182237479987553
284 284 3.869259847936347E1
284 285 6.513993534698151E-1
284 286 2.8284707629027896
284 287 -1.7785204901492413E1
284 288 -6.581082522336167E-1
284 301 -8.394886832555435E-1
284 302 -9.400276679738388
284 303 -3.704891787915868E-1
284 309 9.252495226096784E-1
284 310 -5.757446094764547
284 311 2.174549480595531
284 312 -1.6026260608838023
284 313 -2.275378851014991
284 314 -1.2506317893825134
284 335 5.808978014706798E-1
284 336 -4.4893029261815585
284 337 3.0536269566059038E-2
284 342 -9.391213956638783E-1
284 343 2.685764581509406
284 344 1.246846833276507
285 236 -2.0463900912215798
285 237 2.22876987446525
285 238 4.304810366628987
285 248 2.060991683387533
285 249 1.0988982458627208
285 250 -3.943637836539997
285 251 9.221595870767352E-1
285 252 -2.224347560875775
285 253 -4.846220758673649
285 257 2.0040219114991498
285 258 -1.6457392446153662
285 259 2.7090672518847456
285 280 -1.831880549820106
285 281 -1.2816840313370261
285 282 -1.5175424712860328
285 283 1.720220439233427E-1
285 284 6.513993534698151E-1
285 285 3.327015566401235E1
285 286 1.1497044301827637E-1
285 287 -6.581082522336168E-1
285 288 -1.2601923856973876E1
285 301 1.2348254825915078E-1
285 302 -3.7048917879158666E-1
285 303 -7.643075211966843
285 309 -1.079332291561137
285 310 2.1745494805955308
285 311 -4.713554473275723
285 312 -2.164699074805166
285 313 -1.2506317893825134
285 314 -4.013078782418772
285 335 5.6096240144551834E-2
285 336 3.053626956605926E-2
285 337 -1.2161375402121521E-1
285 342 1.6685575500992516
285 343 1.2468468332765075
285 344 -8.833861373699787E-1
286 224 -9.555373291639531E-1
286 225 -5.009233430738671E-1
286 226 3.075387249522887E-1
286 236 -6.850899136082978
286 237 -1.6527151876621544
286 238 -3.2128593140016815
286 248 -1.4103491881857082
286 249 6.588893793315899E-1
286 250 6.84523446352936E-1
286 254 -8.244242230815313
286 255 -2.294086495028505
286 256 -8.194644568107899E-1
286 257 6.900242494246194E-1
286 258 -4.3132625975447E-1
286 259 2.4467931244897314
286 269 8.549433547574983E-1
286 270 2.361638139986904
286 271 -7.832954492784336E-1
286 283 -1.211792969667235E1
286 284 2.8284707629027896
286 285 1.1497044301827637E-1
286 286 3.4931066284188695E1
286 287 -6.412292989301625E-1
286 288 1.6465664279857397
286 292 -7.419319766961373
286 293 2.6704050066145006
286 294 8.555068405536138E-1
286 298 1.8931842079188523
286 299 3.4952236885766524E-1
286 300 2.825022355639324E-1
286 301 1.4402277532247665
286 302 -3.5947883717553077
286 303 1.1749533040857602E-1
286 312 -2.811168501632747
286 313 2.4614329851101524E-1
286 314 -1.64027735323419
287 224 -1.0217566764075765
287 225 -1.757168686831105
287 226 1.7757946083702105
287 236 -1.6527151876621535
287 237 -5.141398737700072
287 238 -2.1432944182981517
287 248 1.2009061297612242
287 249 -1.9681320421129207
287 250 -1.5470367081745382
287 254 -3.377419828361193
287 255 -1.3916643640834186E1
287 256 -1.2343342024336226
287 257 -4.313262597544706E-1
287 258 1.3236916528136646
287 259 1.5697668304350745
287 269 2.3616381399869044
287 270 -3.78749009358071E-1
287 271 1.5980396322433417
287 283 3.8493040962361125
287 284 -1.7785204901492413E1
287 285 -6.581082522336168E-1
287 286 -6.412292989301625E-1
287 287 4.233165381718395E1
287 288 3.0055452698388727
287 292 2.670405006614502
287 293 -1.766102695287366
287 294 -8.292563894140995E-2
287 298 3.4952236885766574E-1
287 299 -1.232215717213193
287 300 -2.6732223721262667
287 301 -3.594788371755306
287 302 1.8138060302708137
287 303 4.837319296383697E-1
287 312 2.874598814144519E-1
287 313 -1.523536069439095
287 314 -9.395667831826393E-2
288 224 8.283720582803202E-1
288 225 1.775794608370211
288 226 -2.6226170090750633
288 236 -3.212859314001682
288 237 -2.1432944182981526
288 238 -9.426578193400939
288 248 1.471192974563018
288 249 -1.5470367081745395
288 250 -3.404821167354269
288 254 -1.3402977901481545
288 255 -1.234334202433623
288 256 -6.723114003905431
288 257 2.4467931244897296
288 258 1.5697668304350747
288 259 -2.9936581723071383
288 269 -7.832954492784332E-1
288 270 1.5980396322433417
288 271 8.291699495105166E-1
288 283 1.1497044302760921E-1
288 284 -6.581082522336167E-1
288 285 -1.2601923856973876E1
288 286 1.6465664279857397
288 287 3.0055452698388727
288 288 3.7437667232991046E1
288 292 8.555068405536124E-1
288 293 -8.29256389414104E-2
288 294 -3.9582710682272493E-1
288 298 2.825022355639328E-1
288 299 -2.673222372126265
288 300 -1.0196890510076637
288 301 1.1749533040857693E-1
288 302 4.837319296383699E-1
288 303 5.001591411574267
288 312 -2.426946881444271
288 313 -9.39566783182633E-2
288 314 -4.0802000332287225
289 257 -1.0190685239280821E1
289 258 7.959137336346815E-1
289 259 -1.1382080996912105
289 260 -2.824878007335028
289 261 6.401582286010604E-1
289 262 -3.5838091830013E-1
289 263 -1.5216449076935297
289 264 -1.6314151871591465
289 265 -8.10370448927164E-1
289 266 -3.804608280840904
289 267 1.6019690189033735
289 268 1.160962078102299
289 289 3.047056824208783E1
289 290 9.593401992648188E-1
289 291 2.142024632675116
289 292 -1.7425226869580075
289 293 -1.547345895118581
289 294 3.1739162011977387
289 295 -2.7069553983447
289 296 1.493196149819655
289 297 -3.9481904377235937
289 301 -2.3055387576800543E-1
289 302 2.1550829694822066E-1
289 303 2.4459111567151048E-1
289 431 -7.448719845866831
289 432 -2.5273245448940824
289 433 -4.6634412300456596E-1
290 257 7.959137336346815E-1
290 258 -3.090294911791677
290 259 2.2201138893621047E-1
290 260 6.401582286010594E-1
290 261 -7.000817897438813
290 262 3.6235149614803754
290 263 -1.6314151871591471
290 264 -3.3251343323110696
290 265 -1.3409474543024922
290 266 1.6019690189033757
290 267 -7.234463821525213
290 268 -1.6782553134600982
290 289 9.593401992648188E-1
290 290 2.8239868636517535E1
290 291 -7.38035977038032E-1
290 292 -1.547345895118581
290 293 -3.2552587825408867
290 294 2.5295657962948663
290 295 1.4931961498196542
290 296 2.1743271264506325E-1
290 297 1.4569184059730056
290 301 2.1550829694822077E-1
290 302 -1.1557481919237402
290 303 -3.3754227924988265
290 431 -2.527324544894082
290 432 -3.3955834116312054
290 433 -6.993490153850087E-1
291 257 -3.048747663639679E-1
291 258 -1.6083849155279384E-2
291 259 -3.4108293843691135
291 260 -2.0420258442376707E-1
291 261 2.630103186603302
291 262 -5.343395489795921
291 263 -3.9370378226344754E-1
291 264 -5.671379304954457E-1
291 265 -1.1849374866003153
291 266 5.901170775622222E-1
291 267 -8.63414967155062E-1
291 268 -3.221535447462367
291 289 2.142024632675116
291 290 -7.38035977038032E-1
291 291 2.659539828947402E1
291 292 3.1739162011977378
291 293 2.529565796294865
291 294 -3.63736475094378
291 295 -3.9481904377235937
291 296 1.456918405973006
291 297 -5.19978875822965
291 301 2.445911156715104E-1
291 302 -3.375422792498827
291 303 -2.4303604945649604
291 431 -1.2996774563318103
291 432 -1.056491872528527
291 433 -2.1671864775079204
292 236 2.067559191175651
292 237 1.4126306908428734
292 238 1.8703547073082114
292 254 -1.4622276308174307
292 255 -1.643714941918737
292 256 4.324391766385993E-1
292 257 -1.1893445030464866
292 258 2.3448336326119996
292 259 -3.1067725431394275
292 263 -1.275615822442349
292 264 -3.32059063101691E-1
292 265 -7.290808307339207E-1
292 266 9.12779831664076E-1
292 267 1.013421008895261
292 268 1.0885328038565025
292 269 -5.09940693044992
292 270 -1.6286370107084323
292 271 1.6527363755891162
292 272 -1.7459342248414815
292 273 1.931461334868008
292 274 -1.2379306262022838
292 275 -1.2703713150807485
292 276 -1.513798332010023
292 277 -3.3022564133084265
292 286 -7.419319766961373
292 287 2.670405006614502
292 288 8.555068405536124E-1
292 289 -1.7425226869580075
292 290 -1.547345895118581
292 291 3.1739162011977378
292 292 3.895131209260354E1
292 293 3.418680564188697
292 294 1.4759365407039695
292 295 -1.4371649921286753E1
292 296 -2.945628896452811
292 297 -1.900958373769055E-1
292 298 -6.424618899239425
292 299 -1.8326258575014982
292 300 -2.2184598561469437
292 301 6.936058568069292E-2
292 302 -1.3476222412095658
292 303 2.3517346106015644E-1
293 236 1.412630690842874
293 237 2.0843885688145662
293 238 -2.4388404827833208
293 254 -8.981925141972257E-1
293 255 -3.742993431584719E-1
293 256 -1.1105238048008714E-1
293 257 2.3448336326119996
293 258 -8.09948354922886E-1
293 259 2.602240076412785
293 263 -5.67481574893518E-2
293 264 -2.045896983223188
293 265 -1.1889178262661821
293 266 5.609337639969282E-1
293 267 1.9946220837681636
293 268 2.9170630559513405E-1
293 269 -1.3369703440408074
293 270 -7.2856075339932564
293 271 2.9809656261977153
293 272 1.3631152464324905
293 273 -1.950350753884875
293 274 7.820715263777396E-1
293 275 -1.5137983320100232
293 276 3.354845556346777E-1
293 277 -2.234462304191058
293 286 2.6704050066145006
293 287 -1.766102695287366
293 288 -8.29256389414104E-2
293 289 -1.547345895118581
293 290 -3.2552587825408867
293 291 2.529565796294865
293 292 3.418680564188697
293 293 3.0904675571428022E1
293 294 -2.056472725363045
293 295 -3.8206288964540285
293 296 -6.71882526709645
293 297 -6.727069574537679E-1
293 298 -1.249292524167906
293 299 -4.268655970955334
293 300 -2.6405222498631303E-1
293 301 -1.347622241209565
293 302 -6.844225094582728
293 303 -1.3711879041305497E-1
294 236 1.8703547073082114
294 237 -2.4388404827833208
294 238 -1.4946994189985336
294 254 4.324391766385984E-1
294 255 9.575937547186181E-2
294 256 6.32874174936591E-1
294 257 -3.106772543139428
294 258 2.6022400764127855
294 259 -3.776022748817993
294 263 -7.290808307339208E-1
294 264 -2.065372439357405
294 265 -4.713667250592315
294 266 1.0885328038565025
294 267 -3.1725202773502476E-1
294 268 6.103049213606965E-1
294 269 1.6527363755891158
294 270 4.022632292860029
294 271 -8.702521752184083
294 272 -1.2379306262022838
294 273 1.4654346216121628
294 274 -2.0467765516448555
294 275 -3.3022564133084273
294 276 -2.2344623041910574
294 277 -2.370154935008758
294 286 8.555068405536138E-1
294 287 -8.292563894140995E-2
294 288 -3.9582710682272493E-1
294 289 3.1739162011977387
294 290 2.5295657962948663
294 291 -3.63736475094378
294 292 1.4759365407039695
294 293 -2.056472725363045
294 294 3.5004589223248196E1
294 295 -1.90095837376905E-1
294 296 -5.23897433645321E-1
294 297 -4.860719063179598
294 298 -2.2184598561469433
294 299 -8.592903202220662E-1
294 300 -5.343176958737672
294 301 2.3517346106015619E-1
294 302 -1.3711879041305536E-1
294 303 1.0931622173848132
295 266 -4.618485940684435
295 267 -1.1599468794548222
295 268 -1.2459187424918041
295 272 -6.478409194287298
295 273 -3.3931329495817236E-1
295 274 -3.8272501516990964E-2
295 275 1.481195076208406
295 276 9.946084607938119E-2
295 277 3.6825148453689516
295 289 -2.7069553983447
295 290 1.4931961498196542
295 291 -3.9481904377235937
295 292 -1.4371649921286753E1
295 293 -3.8206288964540285
295 294 -1.90095837376905E-1
295 295 4.8532022866741464E1
295 296 6.466599337250454
295 297 2.791912819573032
295 301 2.798141082581788
295 302 3.408253967817034
295 303 1.774929480526723E-1
295 403 -8.836904570899027E-1
295 404 7.545157897892778E-1
295 405 1.3851140685842231
295 406 -1.4947589655909653E1
295 407 4.375130455330513E-1
295 408 -2.4547266514569066
295 414 -1.1225022882058666
295 415 -2.6348134406250745
295 416 -3.2068124642114144
295 431 -7.682076169723038
295 432 -4.704836624796755
295 433 3.046981953198736
296 266 -6.420365903390609E-1
296 267 -5.856746775397611
296 268 -2.1557536573213945
296 272 -1.2805691740556718E-1
296 273 -1.203791889157084E1
296 274 4.64788189391769
296 275 9.946084607938085E-2
296 276 4.509097071282259
296 277 -1.4449873700765585
296 289 1.493196149819655
296 290 2.1743271264506325E-1
296 291 1.456918405973006
296 292 -2.945628896452811
296 293 -6.71882526709645
296 294 -5.23897433645321E-1
296 295 6.466599337250454
296 296 4.023951900804208E1
296 297 -2.476627556143582
296 301 3.4082539678170343
296 302 -1.064675352114869
296 303 -2.212258232295976E-1
296 403 2.5349123120910477E-2
296 404 1.1621991972147294
296 405 5.394293729124657E-1
296 406 -4.374869544681669E-1
296 407 -8.422877593686701
296 408 -2.2458525063775048E-1
296 414 -2.6348134406250745
296 415 -2.3080360737347325
296 416 -2.7472233459917885
296 431 -4.704836624796755
296 432 -9.719168035582927
296 433 3.1500707642428294
297 266 -1.245918742491805
297 267 -3.2806197287464194
297 268 -9.632874801177115
297 272 -3.82725015169908E-2
297 273 5.549533679629214
297 274 -1.130910712591328E1
297 275 3.682514845368952
297 276 -1.444987370076559
297 277 -8.320111675937507E-1
297 289 -3.9481904377235937
297 290 1.4569184059730056
297 291 -5.19978875822965
297 292 -1.900958373769055E-1
297 293 -6.727069574537679E-1
297 294 -4.860719063179598
297 295 2.791912819573032
297 296 -2.476627556143582
297 297 4.359417266919811E1
297 301 1.7749294805267254E-1
297 302 -2.2122582322959755E-1
297 303 3.8104567812009833
297 403 1.3851140685842223
297 404 1.6740556338929852E-1
297 405 5.579719186281069E-1
297 406 -2.454726651456906
297 407 5.194623684073668E-1
297 408 -8.511287697036593
297 414 -3.206812464211414
297 415 -2.7472233459917885
297 416 -2.022199093101888
297 431 3.046981953198736
297 432 3.150070764242829
297 433 -5.594613662795315
298 227 -4.589316791733939
298 228 -1.0731885386647813
298 229 -1.8342383000061955
298 254 -8.364026338695654
298 255 -1.3750929476686267
298 256 9.609915569082045E-1
298 257 -5.20301910394016
298 258 -3.3127768086983593
298 259 3.841419017608161E-1
298 263 -2.338831347110987
298 264 6.246639775928962E-1
298 265 1.371534712707151
298 286 1.8931842079188523
298 287 3.4952236885766574E-1
298 288 2.825022355639328E-1
298 292 -6.424618899239425
298 293 -1.249292524167906
298 294 -2.2184598561469433
298 298 2.4857476785206277E1
298 299 3.6313360746218235
298 300 1.5591807505828705
298 312 1.6915148759504534E-1
298 313 2.40482839812729
298 314 -5.056530013698362E-1
299 227 -4.898552053311869E-1
299 228 -2.8066671969671004
299 229 -3.234997952416543E-1
299 254 -8.571826585528651E-1
299 255 -5.11478342656326
299 256 1.1458811652596994
299 257 -3.3127768086983562
299 258 -8.374822840066429
299 259 9.233098395777615E-1
299 263 1.0675368847713351E-1
299 264 -8.897912598934984E-1
299 265 -7.304762311602897E-2
299 286 3.4952236885766524E-1
299 287 -1.232215717213193
299 288 -2.673222372126265
299 292 -1.8326258575014982
299 293 -4.268655970955334
299 294 -8.592903202220662E-1
299 298 3.6313360746218235
299 299 2.1782200141268035E1
299 300 7.216980770891541E-1
299 312 2.4048283981272887
299 313 9.047362703907827E-1
299 314 1.1381710287793996
300 227 -1.834238300006195
300 228 -9.187378904774075E-1
300 229 -5.9383668216487875
300 254 9.609915569082049E-1
300 255 1.8067293795421056
300 256 -5.617479300960713
300 257 3.8414190176081675E-1
300 258 9.233098395777621E-1
300 259 -5.2841745359571775
300 263 1.3715347127071507
300 264 -7.338958373984339E-1
300 265 -2.9789741483346512
300 286 2.825022355639324E-1
300 287 -2.6732223721262667
300 288 -1.0196890510076637
300 292 -2.2184598561469437
300 293 -2.6405222498631303E-1
300 294 -5.343176958737672
300 298 1.5591807505828705
300 299 7.216980770891541E-1
300 300 2.3902711725068787E1
300 312 -5.056530013698364E-1
300 313 1.1381710287793996
300 314 2.2791490915778816
301 236 -8.690213487853032E-1
301 237 -1.3386272568496862
301 238 2.052281654874012
301 239 -5.649010592937651
301 240 -8.17706894113633E-17
301 241 5.861269550390231E-16
301 251 2.7028895476273906E-2
301 252 6.886755867500285E-3
301 253 2.1007519080123203
301 257 -9.66101968372676E-1
301 258 -1.9768432496899806
301 259 -2.4943662117818475
301 260 -5.651818238172492
301 261 3.9228965326720894E-17
301 262 -7.531425579989922E-16
301 275 4.385777008063785E-2
301 276 4.4824044692965337E-1
301 277 -5.751949129829343E-1
301 278 1.1569999642330508
301 279 1.6422076815897055
301 280 -3.0252829677282724
301 281 3.8173717794803846E-1
301 282 2.249902292326093
301 283 -1.4806506049662271E1
301 284 -8.394886832555435E-1
301 285 1.2348254825915078E-1
301 286 1.4402277532247665
301 287 -3.594788371755306
301 288 1.1749533040857693E-1
301 289 -2.3055387576800543E-1
301 290 2.1550829694822077E-1
301 291 2.445911156715104E-1
301 292 6.936058568069292E-2
301 293 -1.347622241209565
301 294 2.3517346106015619E-1
301 295 2.798141082581788
301 296 3.4082539678170343
301 297 1.7749294805267254E-1
301 301 7.153742110190575E1
301 302 9.693379671180363E-1
301 303 -6.368037616552188E-1
301 307 1.7248270734793385
301 308 -1.7286207904850037
301 309 -2.2125835200938972
301 310 -4.005689837001784E-1
301 311 -2.60320719753898
301 334 -2.4514087294436853
301 335 -9.829952332482549
301 336 3.6801086338341378
301 337 2.1391658968921634
301 340 -4.088799177090742
301 341 -9.298349896812366E-2
301 342 -3.4222444987860103
301 343 3.032583521389344E-1
301 344 -2.514606293627348
301 345 -4.0676956970010314E-1
301 346 -3.4423231574429245
301 350 1.9519014037745006
301 356 3.0056045025557685
301 371 1.6200212247858758E-1
301 384 -3.1764966198951208
301 385 4.6882837716406595E-1
301 386 -4.2206675594521603E-1
301 387 -9.95021528376191
301 388 -4.657548003175193
301 389 4.275024539557136E-1
301 393 -1.540353006485843
301 399 1.3315590572165559
301 400 -9.800453313871071E-1
301 414 -6.110911605958075
301 415 2.0109703448424914
301 416 -4.163666290260241
301 431 -6.1247469410070785
301 432 1.5118513164141532
301 433 4.158187077029995
302 236 -1.338627256849687
302 237 -1.957350170125339
302 238 2.531426121723113
302 239 -9.716996135737716E-17
302 240 -5.649010592937651
302 241 -6.428030412157033E-16
302 251 6.886755867499912E-3
302 252 4.161359389105349
302 253 -6.608258324600984E-1
302 257 -1.9768432496899804
302 258 -1.4052002674507789
302 259 -2.7650332009201604
302 260 2.6272755139380662E-17
302 261 -5.651818238172491
302 262 -3.5604722373088E-17
302 275 4.4824044692965376E-1
302 276 -2.0114375604328485
302 277 3.7738155923304033
302 278 -4.765237784605033
302 279 -4.543785779661574
302 280 3.817371779480387E-1
302 281 -3.785692210344556
302 282 7.395480284597631E-1
302 283 -8.394886832555424E-1
302 284 -9.400276679738388
302 285 -3.7048917879158666E-1
302 286 -3.5947883717553077
302 287 1.8138060302708137
302 288 4.837319296383699E-1
302 289 2.1550829694822066E-1
302 290 -1.1557481919237402
302 291 -3.375422792498827
302 292 -1.3476222412095658
302 293 -6.844225094582728
302 294 -1.3711879041305536E-1
302 295 3.408253967817034
302 296 -1.064675352114869
302 297 -2.2122582322959755E-1
302 301 9.693379671180363E-1
302 302 7.021394358063992E1
302 303 1.184661317445235
302 307 1.9519014037745008
302 308 1.6581110229751412
302 309 -4.0056898370017757E-1
302 310 1.4895014643860671
302 311 -8.952178058796179E-2
302 334 1.1569999642330513
302 335 3.6801086338341378
302 336 -6.797853908052561
302 337 -9.678251812723997E-1
302 340 1.620021224785879E-1
302 341 5.061688175910516
302 342 3.032583521389341E-1
302 343 -3.99972809958052
302 344 -7.387865204205463E-1
302 345 -1.5403530064858428
302 346 -2.796678127191387
302 350 1.1949941141008606
302 356 1.7893368057944499
302 371 -6.67166633482134
302 384 4.6882837716406817E-1
302 385 -1.3617612023074539E1
302 386 -1.6764297988718122
302 387 -4.657548003175192
302 388 -5.505895124263868
302 389 1.0684084587212637
302 393 -1.2520374205787395
302 399 -9.800453313871069E-1
302 400 1.8532684874085028
302 414 2.0109703448424914
302 415 4.79691239727823E-1
302 416 8.383378233778309E-1
302 431 1.5118513164141527
302 432 3.289007471606258E-1
302 433 -7.859224700570804E-1
303 236 2.052281654874015
303 237 2.5314261217231127
303 238 -3.9655210251232775
303 239 1.250630836258709E-15
303 240 -1.6536691501580395E-15
303 241 -1.4122526482344124E1
303 251 2.100751908012319
303 252 -6.608258324600977E-1
303 253 1.0571903570793963
303 257 -2.4943662117818475
303 258 -2.7650332009201604
303 259 -3.3057810016202254
303 260 -8.761716400808165E-16
303 261 -1.843358148803175E-16
303 262 -1.4129545595431228E1
303 275 -5.751949129829346E-1
303 276 3.7738155923304033
303 277 -1.7921084838334815
303 278 -4.543785779661572
303 279 -7.761264794065061
303 280 2.2499022923260936
303 281 7.395480284597624E-1
303 282 -6.765853269751425
303 283 1.2348254825915145E-1
303 284 -3.704891787915868E-1
303 285 -7.643075211966843
303 286 1.1749533040857602E-1
303 287 4.837319296383697E-1
303 288 5.001591411574267
303 289 2.4459111567151048E-1
303 290 -3.3754227924988265
303 291 -2.4303604945649604
303 292 2.3517346106015644E-1
303 293 -1.3711879041305497E-1
303 294 1.0931622173848132
303 295 1.774929480526723E-1
303 296 -2.212258232295976E-1
303 297 3.8104567812009833
303 301 -6.368037616552188E-1
303 302 1.184661317445235
303 303 8.031766897546068E1
303 307 -1.728620790485004
303 308 4.433305257193263
303 309 -2.60320719753898
303 310 -8.952178058796169E-2
303 311 -8.646090973446621E-1
303 334 1.6422076815897055
303 335 2.139165896892164
303 336 -9.678251812723999E-1
303 337 -6.129917814079481
303 340 -9.298349896812326E-2
303 341 -1.1343948019575244E1
303 342 -2.514606293627348
303 343 -7.387865204205464E-1
303 344 -6.802521236448633
303 345 -3.442323157442923
303 346 -3.132676200672294
303 350 1.6581110229751415
303 356 -1.1136198456801942
303 371 5.061688175910515
303 384 -4.2206675594521803E-1
303 385 -1.676429798871811
303 386 -3.2279988635531525
303 387 4.2750245395571446E-1
303 388 1.0684084587212634
303 389 -1.3455858963535965
303 393 -2.7966781271913868
303 399 3.0056045025557685
303 400 1.7893368057944494
303 414 -4.163666290260242
303 415 8.383378233778305E-1
303 416 1.3853708254434932E-1
303 431 4.158187077029995
303 432 -7.8592247005708E-1
303 433 2.5001249970113992E-2
304 245 7.161553178850593E-1
304 246 1.811305622903392E-2
304 247 -3.992213037298771E-1
304 278 5.512011079174415E-1
304 279 2.7918481169049647E-1
304 304 1.299426294395257E1
304 305 -8.355799447979237E-2
304 306 -4.832508814830006
304 323 -9.183967952131002
304 324 6.428581748659158E-1
304 325 2.976199076288186
304 334 4.0025372865284986E-1
304 449 5.249980292642613E-1
304 450 -7.142547538188776E-2
304 451 -4.2516883943324224E-1
304 467 -1.6294692762778384
304 468 -4.8214363114943715E-1
304 469 7.440411689435944E-1
304 487 -3.822232791345897
304 488 -5.75045238001274E-1
304 489 1.657473901070848
305 245 -1.6938694376905736E-1
305 246 4.129003197019043E-2
305 247 7.124728770624772E-2
305 278 9.762899419322653E-1
305 279 -5.679499122849483E-1
305 304 -8.355799447979237E-2
305 305 1.2458151157854813E1
305 306 6.554074268067644E-1
305 323 3.928581748684613E-1
305 324 -8.857564265147957
305 325 -1.9122049485822101
305 334 5.512011079174415E-1
305 449 1.7857452461556722E-1
305 450 -3.6350617450592704E-1
305 451 -2.7317213551255864E-1
305 467 -2.946436311513463E-1
305 468 -1.8742720415151235
305 469 1.4341537114366576
305 487 -5.75045238001274E-1
305 488 -2.3803886505882605
305 489 5.925185704300475E-1
306 245 -5.536651595706088E-1
306 246 -4.9873101394902547E-1
306 247 1.8521925218000228
306 278 -1.1142941833083562
306 279 2.935091744141359
306 304 -4.832508814830006
306 305 6.554074268067644E-1
306 306 2.482598080398805E1
306 323 2.0833419334399568
306 324 -1.9122049485822092
306 325 -2.0784916303652455E1
306 334 1.2145614185200282
306 449 -4.6768830341454426E-1
306 450 2.73172135510849E-1
306 451 1.3005023766681798
306 467 -7.441121200010181E-2
306 468 1.4341537114366574
306 469 -5.704925873200887
306 487 2.6303701378552744
306 488 1.1624968720853204
306 489 -4.423925269744267
307 301 1.7248270734793385
307 302 1.9519014037745008
307 303 -1.728620790485004
307 307 6.14743788492269E1
307 308 1.643190738044747E1
307 309 -1.9716502581908872
307 310 -6.047502828409876E-1
307 311 -1.9005272059084988E-1
307 315 -4.421248425842238E1
307 316 -1.838721176573667E1
307 335 -5.1911737958815
307 336 -4.5935128702314515E-1
307 337 1.2033278810250345
307 338 2.0122580820823177E-1
307 339 5.201452102503835E-1
307 340 -3.8924495677057807
307 341 4.416448236960972
307 347 -1.4746285149644767
307 348 -2.4894887036814745E-1
307 349 1.1982181798181127E-1
307 350 -6.743827122401262E-1
307 351 -1.749313804250257
307 352 9.309154175259056E-1
307 353 -6.461264911426798E-1
307 354 7.106925235119034E-1
307 367 -1.728304240819026
307 371 1.1615788931556779
307 375 1.4529514730672577
307 376 -1.2603619404209676
307 377 1.5709132017989083
307 384 -4.432152955539173
307 385 -1.7085189532828453
307 386 -3.3105519605093763
308 301 -1.7286207904850037
308 302 1.6581110229751412
308 303 4.433305257193263
308 307 1.643190738044747E1
308 308 1.0724349078222384E2
308 309 -4.7407023708556034E-1
308 310 -2.118374330408758
308 311 -2.1205852444707993
308 315 -1.9428878432408467E1
308 316 -8.399333759946462E1
308 335 1.9756444060426464
308 336 2.0863417449601958
308 337 -1.1341655915213328E1
308 338 -1.7837421615140205
308 339 -5.20909276088657
308 340 4.416448236960972
308 341 -3.8822753156997165
308 347 3.891719596359976E-1
308 348 -2.2300255347037705
308 349 -1.8215638253716517
308 350 1.6168883486818592E-1
308 351 -1.1669598244727473
308 352 1.6384414704191625
308 353 -8.83230966384094E-1
308 354 1.9870058773558696
308 367 1.3249960600751587
308 371 -1.8856418590412718
308 375 1.5709132017989067
308 376 1.9592004320637284
308 377 1.5356599822507744
308 384 -3.310551960509375
308 385 -1.4730054969744633
308 386 -3.9607143941770686
309 283 -3.2710986647419107
309 284 9.252495226096784E-1
309 285 -1.079332291561137
309 301 -2.2125835200938972
309 302 -4.0056898370017757E-1
309 303 -2.60320719753898
309 307 -1.9716502581908872
309 308 -4.7407023708556034E-1
309 309 5.8350229878415675E1
309 310 -4.019678225022978
309 311 1.6459426965348445E1
309 312 6.324485032793958E-1
309 313 3.336080991582544E-1
309 314 3.973606594522183E-1
309 315 -5.644903008502611E-1
309 316 -6.356865790363764E-2
309 317 -4.355355491999173E1
309 318 1.764776568209694
309 319 -1.6305274354829983E1
309 335 -6.563923634541486E-1
309 336 3.75684647151672E-1
309 337 7.850138817171981E-2
309 340 -3.7606094770833015E-2
309 341 1.5091930481885405
309 342 -6.715302259601393
309 343 2.9071285246785017
309 344 2.080970677758373
309 350 -1.0275756696964087
309 354 5.594658908850387E-1
309 371 -1.418090374273275
310 283 3.982574690862613E-1
310 284 -5.757446094764547
310 285 2.1745494805955308
310 301 -4.005689837001784E-1
310 302 1.4895014643860671
310 303 -8.952178058796169E-2
310 307 -6.047502828409876E-1
310 308 -2.118374330408758
310 309 -4.019678225022978
310 310 5.7991581375074844E1
310 311 -4.255317463980448
310 312 -1.6604181707780769E-1
310 313 -9.702592825150499E-1
310 314 -5.80497874599003E-1
310 315 6.844658908866896E-1
310 316 1.7125350016148388
310 317 1.86894323487769
310 318 -3.861189904357505E1
310 319 5.521393506654888
310 335 7.503345633860831E-1
310 336 -9.136611712364812E-1
310 337 -1.6879339117333423
310 340 -1.4180903742732753
310 341 1.4620420835888028
310 342 2.9071285246785026
310 343 -7.7216512416777485
310 344 -2.1388747111445476
310 350 -5.218860563530206
310 354 -8.971098409720993E-1
310 371 6.098043988102648E-1
311 283 -3.2168314137675996E-1
311 284 2.174549480595531
311 285 -4.713554473275723
311 301 -2.60320719753898
311 302 -8.952178058796179E-2
311 303 -8.646090973446621E-1
311 307 -1.9005272059084988E-1
311 308 -2.1205852444707993
311 309 1.6459426965348445E1
311 310 -4.255317463980448
311 311 1.0375048885978077E2
311 312 1.4236352098755536E-1
311 313 -5.804978745990036E-1
311 314 2.700112477036842E-1
311 315 -5.844019912452684E-1
311 316 -4.17600040517151E-1
311 317 -1.7346941021509068E1
311 318 5.521393506654887
311 319 -8.90357725569423E1
311 335 8.543318599780144E-1
311 336 -1.6879339117333423
311 337 -3.485960726351812
311 340 1.50919304818854
311 341 1.1238742888853268
311 342 2.0809706777583727
311 343 -2.138874711144547
311 344 -4.506292257467327
311 350 -2.1183743304087574
311 354 1.7125350016148384
311 371 1.4620420835888026
312 227 -1.0781014104743547
312 228 -1.5372719339610091E-1
312 229 3.769168761868138E-1
312 254 1.9742151527105767
312 255 1.376169269236447E-1
312 256 5.753305062871864E-1
312 257 -1.2535440224855652E1
312 258 -3.150240940181281E-1
312 259 -4.3704200182803277E-1
312 283 -3.4181122950807437
312 284 -1.6026260608838023
312 285 -2.164699074805166
312 286 -2.811168501632747
312 287 2.874598814144519E-1
312 288 -2.426946881444271
312 298 1.6915148759504534E-1
312 299 2.4048283981272887
312 300 -5.056530013698364E-1
312 309 6.324485032793958E-1
312 310 -1.6604181707780769E-1
312 311 1.4236352098755536E-1
312 312 8.312054370598729E1
312 313 -4.9830698832331555E-1
312 314 2.061349195077185E1
312 317 -4.4562623514281097E-1
312 318 3.510598448372222E-1
312 319 -6.330896964737875E-2
312 320 -6.458763596250911E1
312 321 1.267998548616196
312 322 -1.7046520484682432E1
312 342 -1.020274219876887
312 343 -1.7132374462196482
312 344 9.360675595437111E-1
313 227 -6.745605267292103E-1
313 228 -2.6209162701552957
313 229 -1.8398149416628091
313 254 -5.748130563240701E-1
313 255 2.3583373010183759E-1
313 256 8.666027131640417E-1
313 257 -3.1502409401812825E-1
313 258 -5.6088726829791
313 259 -9.486852935926674E-1
313 283 -1.0568627443040455
313 284 -2.275378851014991
313 285 -1.2506317893825134
313 286 2.4614329851101524E-1
313 287 -1.523536069439095
313 288 -9.39566783182633E-2
313 298 2.40482839812729
313 299 9.047362703907827E-1
313 300 1.1381710287793996
313 309 3.336080991582544E-1
313 310 -9.702592825150499E-1
313 311 -5.804978745990036E-1
313 312 -4.9830698832331555E-1
313 313 7.442154154114883E1
313 314 -5.042740838063891
313 317 4.5522651150469395E-1
313 318 -6.065132381812519E-1
313 319 1.0925070003175
313 320 1.3929985486171652
313 321 -6.150714473545902E1
313 322 6.555042001905852
313 342 -1.7132374462196476
313 343 -4.4949041189762945E-1
313 344 1.0400467145235678E-1
314 227 -1.4391645715055995E-1
314 228 -1.8398149416628098
314 229 -2.373408262548433
314 254 9.409977452622827E-1
314 255 8.666027131640414E-1
314 256 9.062597757053024E-1
314 257 -4.3704200182803E-1
314 258 -9.48685293592667E-1
314 259 -7.302953051388638
314 283 -1.4886996471055327
314 284 -1.2506317893825134
314 285 -4.013078782418772
314 286 -1.64027735323419
314 287 -9.395667831826393E-2
314 288 -4.0802000332287225
314 298 -5.056530013698362E-1
314 299 1.1381710287793996
314 300 2.2791490915778816
314 309 3.973606594522183E-1
314 310 -5.80497874599003E-1
314 311 2.700112477036842E-1
314 312 2.061349195077185E1
314 313 -5.042740838063891
314 314 1.6107004471606453E2
314 317 -5.84142302984734E-1
314 318 1.0925070003175001
314 319 -3.006112780914432E-1
314 320 -1.808818715135718E1
314 321 6.5550420019058535
314 322 -1.467588665739613E2
314 342 9.360675595437112E-1
314 343 1.0400467145235605E-1
314 344 3.0365315058590747E-1
315 307 -4.421248425842238E1
315 308 -1.9428878432408467E1
315 309 -5.644903008502611E-1
315 310 6.844658908866896E-1
315 311 -5.844019912452684E-1
315 315 5.741163074376349E1
315 316 2.0984610278062263E1
315 317 9.878200391129388E-1
315 318 -3.3519523851588545E-3
315 319 5.446715800031439E-1
315 329 -2.1437500738957107
315 330 -1.9417470909036894E-1
315 331 -1.6759170994277E-1
315 332 -9.173257684256054
315 333 -2.080699160462353
315 340 -3.9312044565802475
315 341 8.61782635561286E-13
315 350 7.940258568455297E-1
315 351 1.036178048279365
315 352 -7.23768736660022E-2
315 353 7.322894359934842E-1
315 354 -1.5683781345472085
315 355 3.9254104211115015E-1
315 371 7.242304773167846E-1
315 375 5.895579428488651E-1
315 376 -7.569815974714165E-1
315 377 -9.004373271315438E-13
316 307 -1.838721176573667E1
316 308 -8.399333759946462E1
316 309 -6.356865790363764E-2
316 310 1.7125350016148388
316 311 -4.17600040517151E-1
316 315 2.0984610278062263E1
316 316 1.0902911571496898E2
316 317 3.9586205621397635E-1
316 318 -6.422006255208417E-1
316 319 1.990639792030179
316 329 -9.116393289638682E-1
316 330 -1.498468126440438
316 331 -6.137245438744449
316 332 -2.9735563033449814
316 333 -2.0762531476433146E1
316 340 8.612137621253537E-13
316 341 -4.293211161225799
316 350 1.9870058773558692
316 351 9.555037216729505E-1
316 352 -8.192207351004213E-1
316 353 1.5045809442385532
316 354 -2.651166440763514
316 355 1.9115150488545083
316 371 2.969094353832224E-14
316 375 -8.995259216315727E-13
316 376 -3.1028129588667076E-14
316 377 3.0795892651474825
317 309 -4.355355491999173E1
317 310 1.86894323487769
317 311 -1.7346941021509068E1
317 312 -4.4562623514281097E-1
317 313 4.5522651150469395E-1
317 314 -5.84142302984734E-1
317 315 9.878200391129388E-1
317 316 3.9586205621397635E-1
317 317 5.644827697910241E1
317 318 -2.5470999752918093
317 319 1.8896018850567053E1
317 320 8.76967357948028E-1
317 321 1.3438499397706118E-2
317 322 3.6924986142079597E-1
317 326 -1.1725184952957293
317 327 -1.55084941819219E-1
317 328 1.0189832469626192E-1
317 329 -9.720918188027683
317 330 2.912620636363608E-1
317 331 -1.8319457684043903
317 340 2.1431472707347515E-1
317 341 -1.7773562540712175E-13
317 342 -3.6347612647788865
317 343 6.720933038335075E-1
317 344 2.8105110013164266E-13
317 354 -1.700186190531157E-1
317 371 -4.2876007708581354E-1
318 309 1.764776568209694
318 310 -3.861189904357505E1
318 311 5.521393506654887
318 312 3.510598448372222E-1
318 313 -6.065132381812519E-1
318 314 1.0925070003175001
318 315 -3.3519523851588545E-3
318 316 -6.422006255208417E-1
318 317 -2.5470999752918093
318 318 5.124758073231173E1
318 319 -6.990331695778389
318 320 -6.989483393627222E-2
318 321 5.421317406174438E-1
318 322 -2.731267500447981E-1
318 326 -2.1758494181970378E-1
318 327 -1.2838615477908382
318 328 -9.559436252952083E-1
318 329 4.78762063638335E-1
318 330 -9.734333559858861
318 331 2.247702189666891
318 340 -4.287600770858139E-1
318 341 7.125172943942133E-14
318 342 6.720933038335076E-1
318 343 -2.6427134527893426
318 344 -1.117590324018175E-13
318 354 2.454850761768471E-1
318 371 8.441232930893187E-1
319 309 -1.6305274354829983E1
319 310 5.521393506654888
319 311 -8.90357725569423E1
319 312 -6.330896964737875E-2
319 313 1.0925070003175
319 314 -3.006112780914432E-1
319 315 5.446715800031439E-1
319 316 1.990639792030179
319 317 1.8896018850567053E1
319 318 -6.990331695778389
319 319 1.1509900607521988E2
319 320 2.948450995262115E-1
319 321 -2.731267500447977E-1
319 322 1.6596103294175122
319 326 -5.677445324302615E-1
319 327 -9.559436252952085E-1
319 328 -3.8372064796316163
319 329 -2.799207673188893
319 330 2.2477021896668905
319 331 -2.3135490089058216E1
319 340 -1.7696400970756705E-13
319 341 1.9746154549840669
319 342 2.82287152535372E-13
319 343 -1.1250089045679174E-13
319 344 -4.414791247928039
319 354 -6.422006255208413E-1
319 371 7.168035744441263E-14
320 227 -1.042063491906065
320 228 1.1666666666459315E-1
320 229 -7.440476189450683E-2
320 257 -1.6459369500076217
320 258 2.247441221734434E-1
320 259 8.306403064115489E-14
320 312 -6.458763596250911E1
320 313 1.3929985486171652
320 314 -1.808818715135718E1
320 317 8.76967357948028E-1
320 318 -6.989483393627222E-2
320 319 2.948450995262115E-1
320 320 8.436291323411467E1
320 321 -1.7175417302836453
320 322 2.0452495844045806E1
320 326 -1.8527928379511412E1
320 327 3.1016988363843795E-1
320 328 -2.5847490303203173
320 342 5.636841918715192E-1
320 343 -2.57142656873722E-1
320 344 -9.72495393061127E-14
321 227 3.3333333330614605E-2
321 228 -1.2920634919080005
321 229 -7.460081940857657E-14
321 257 2.247441221734437E-1
321 258 -1.1436569648554924
321 259 8.791245393386076E-15
321 312 1.267998548616196
321 313 -6.150714473545902E1
321 314 6.5550420019058535
321 317 1.3438499397706118E-2
321 318 5.421317406174438E-1
321 319 -2.731267500447977E-1
321 320 -1.7175417302836453
321 321 8.092526283270912E1
321 322 -8.193802502451396
321 326 4.3516988363940734E-1
321 327 -1.830524227452119E1
321 328 1.9118872505904152
321 342 -2.57142656873722E-1
321 343 7.80712893417152E-1
321 344 -1.0079038919126552E-14
322 227 -1.4880952378908935E-1
322 228 -7.352143588268402E-14
322 229 -2.580158729778364
322 257 8.191637784131751E-14
322 258 8.225892131649828E-15
322 259 -2.469231424898474
322 312 -1.7046520484682432E1
322 313 6.555042001905852
322 314 -1.467588665739613E2
322 317 3.6924986142079597E-1
322 318 -2.731267500447981E-1
322 319 1.6596103294175122
322 320 2.0452495844045806E1
322 321 -8.193802502451396
322 322 1.9235926810644347E2
322 326 -3.626415696995063
322 327 1.9118872505904152
322 328 -4.4508000465993945E1
322 342 -9.814765544524224E-14
322 343 -9.452655982448272E-15
322 344 2.297378758771115
323 245 -2.142661707398432
323 246 -1.9353768540776947E-1
323 247 1.7290024063109932E-1
323 251 7.239301198645667E-1
323 252 6.386606038891098E-1
323 253 -4.41899379753511E-1
323 278 2.8657761148437064
323 279 -2.2582971007579538
323 304 -9.183967952131002
323 305 3.928581748684613E-1
323 306 2.0833419334399568
323 323 2.632339678144592E1
323 324 -3.262799799597895
323 325 -1.5705800864792554
323 334 -7.651775645509373
323 335 -4.316938374271185
323 336 1.2461811043247333
323 337 1.5743242348741613
323 338 4.1991473933018847E-1
323 339 -8.695348881805347E-1
323 367 -2.2259195279399964
323 384 -1.579941283465165
323 385 -9.381254774919832E-1
323 386 3.0019130355236605
323 467 -1.9524437952759288
323 468 6.259188442843253E-1
323 469 -2.2459263699272564E-1
323 487 2.006321384680597
323 488 -1.7948466190428771
323 489 -1.4675753523048958
324 245 -3.1853768540649696E-1
324 246 -2.1324318456471474
324 247 1.496193041845313
324 251 8.231932407983927E-2
324 252 -1.551258903681353
324 253 -7.049341363484524E-2
324 278 -5.992993382056269
324 279 1.2457680120113412
324 304 6.428581748659158E-1
324 305 -8.857564265147957
324 306 -1.9122049485822092
324 323 -3.262799799597895
324 324 3.0059710310313886E1
324 325 6.526822093560095E-1
324 334 2.8657761148437064
324 335 8.253325576864875E-1
324 336 -6.49459785906186
324 337 -3.285173079589401
324 338 -1.9705867568593736
324 339 1.914015804545684
324 367 7.262560191420043E-1
324 384 -9.381254774919829E-1
324 385 1.1907038895609512
324 386 5.442818759158903E-1
324 467 1.171767390921298
324 468 -5.791074988783266
324 469 1.4078451621622148
324 487 -1.7948466190428762
324 488 1.540093801362392
324 489 -1.992914664029998
325 245 9.169478596708807E-1
325 246 1.496193041845312
325 247 -6.128793994963054
325 251 -5.299056728113573E-1
325 252 -7.049341363484418E-2
325 253 2.1040258670393177
325 278 1.2457680120113417
325 279 -6.033564538464383
325 304 2.976199076288186
325 305 -1.9122049485822101
325 306 -2.0784916303652455E1
325 323 -1.5705800864792554
325 324 6.526822093560095E-1
325 325 4.101952824602867E1
325 334 -2.2582971007579538
325 335 8.020077098378842E-1
325 336 -3.285173079589401
325 337 -7.1457381338195205
325 338 1.9140158045456839
325 339 -5.5005361746378725
325 367 -1.6743857379709202
325 384 3.001913035523661
325 385 5.442818759158903E-1
325 386 -1.256953641033642
325 467 -1.963237309962258E-1
325 468 1.407845162162216
325 469 -9.730742149652176E-1
325 487 -1.4675753523048956
325 488 -1.9929146640299984
325 489 4.700022888468168
326 227 8.743055554385744E-1
326 228 6.875000000095918E-2
326 229 2.604166666527712E-1
326 257 3.5391598032324717E-1
326 258 1.7206961802829868E-1
326 259 -6.84313762107452E-1
326 317 -1.1725184952957293
326 318 -2.1758494181970378E-1
326 319 -5.677445324302615E-1
326 320 -1.8527928379511412E1
326 321 4.3516988363940734E-1
326 322 -3.626415696995063
326 326 2.0167595555190807E1
326 327 -1.9669971181566143E-1
326 328 5.1007849491128265
326 329 7.527036467775667E-1
326 330 -6.483011636447047E-2
326 331 5.254565800915811E-1
326 342 -2.4480738629230543
326 343 -1.9687473166882946E-1
326 344 -1.0081842043244034
327 227 6.250000000474404E-3
327 228 6.8680555543712E-1
327 229 2.604166666846024E-1
327 257 1.7206961802829865E-1
327 258 6.99411529050759E-1
327 259 3.8692891115344874E-1
327 317 -1.55084941819219E-1
327 318 -1.2838615477908382
327 319 -9.559436252952085E-1
327 320 3.1016988363843795E-1
327 321 -1.830524227452119E1
327 322 1.9118872505904152
327 326 -1.9669971181566143E-1
327 327 1.9450313468184365E1
327 328 -1.6157928653416787
327 329 6.0169883636499014E-2
327 330 3.7006547211386603E-1
327 331 4.5521125016691555E-1
327 342 -1.9687473166882946E-1
327 343 -1.61749220247408
327 344 -4.427075879584943E-1
328 227 3.6458333332642895E-1
328 228 6.770833333483182E-1
328 229 2.120138888597843
328 257 -1.5734723075522903
328 258 7.510979112593238E-1
328 259 2.007991907582134
328 317 1.0189832469626192E-1
328 318 -9.559436252952083E-1
328 319 -3.8372064796316163
328 320 -2.5847490303203173
328 321 1.9118872505904152
328 322 -4.4508000465993945E1
328 326 5.1007849491128265
328 327 -1.6157928653416787
328 328 4.575684569173351E1
328 329 3.729484588616727E-1
328 330 9.104225006104055E-2
328 331 1.5749446209397868
328 342 -1.7819937281245848
328 343 -8.593742546222103E-1
328 344 -3.114714163227723
329 315 -2.1437500738957107
329 316 -9.116393289638682E-1
329 317 -9.720918188027683
329 318 4.78762063638335E-1
329 319 -2.799207673188893
329 326 7.527036467775667E-1
329 327 6.0169883636499014E-2
329 328 3.729484588616727E-1
329 329 1.2571222217481363E1
329 330 -2.125061259529481E-1
329 331 4.306655217989877
329 332 7.174361867343245E-1
329 333 5.518956493797388E-1
329 340 -2.464722229800722
329 341 -1.2326516832373215
329 342 2.8802844073086376E-1
329 343 4.425453526539719E-1
329 344 -2.8800064084120564E-1
329 354 -3.191747090913384E-1
329 355 -1.674758727351746E-1
329 371 -2.823205921493448E-1
330 315 -1.9417470909036894E-1
330 316 -1.498468126440438
330 317 2.912620636363608E-1
330 318 -9.734333559858861
330 319 2.2477021896668905
330 326 -6.483011636447047E-2
330 327 3.7006547211386603E-1
330 328 9.104225006104055E-2
330 329 -2.125061259529481E-1
330 330 1.2158105505682121E1
330 331 -1.4707637237625688
330 332 2.0024127266799557E-2
330 333 4.994893755648697E-1
330 340 -2.823205921493448E-1
330 341 -2.3082226910354398E-1
330 342 4.425453526539719E-1
330 343 5.85355621178582E-1
330 344 3.6182030401374987E-1
330 354 -2.1348064926749486
330 355 4.142957512027065E-2
330 371 -1.2858161215610264
331 315 -1.6759170994277E-1
331 316 -6.137245438744449
331 317 -1.8319457684043903
331 318 2.247702189666891
331 319 -2.3135490089058216E1
331 326 5.254565800915811E-1
331 327 4.5521125016691555E-1
331 328 1.5749446209397868
331 329 4.306655217989877
331 330 -1.4707637237625688
331 331 2.58315604683889E1
331 332 3.994740909006719E-1
331 333 1.855085691026874
331 340 -2.1292074234883276
331 341 -2.5396848389245963
331 342 -1.102840987146642
331 343 9.32665304552166E-1
331 344 2.5508295863717083
331 354 -1.4984681264404387
331 355 -7.135562497354642E-2
331 371 -5.949912692094189E-1
332 315 -9.173257684256054
332 316 -2.9735563033449814
332 329 7.174361867343245E-1
332 330 2.0024127266799557E-2
332 331 3.994740909006719E-1
332 332 1.2984679767993859E1
332 333 4.829700768532145
332 340 4.0001618844281095E-1
332 341 -2.790502296631364E-1
332 351 -1.6301692866317938
332 352 -4.819057815865718E-1
332 353 -7.460232486341485E-1
332 354 6.425410421127333E-1
332 355 -8.33796912543169E-2
332 371 5.506798913840645E-1
332 375 -3.8239991967109748
332 376 -5.755827142482424E-1
332 377 -1.6560914562382707
332 476 5.252940244278279E-1
332 477 -7.237687367446582E-2
332 478 4.2554637844771925E-1
333 315 -2.080699160462353
333 316 -2.0762531476433146E1
333 329 5.518956493797388E-1
333 330 4.994893755648697E-1
333 331 1.855085691026874
333 332 4.829700768532145
333 333 2.4805734420698244E1
333 340 -1.2136717584836338
333 341 2.9360914859407554
333 351 7.242913227718983E-2
333 352 -1.4336362866468968
333 353 -5.703382767241553
333 354 1.9115150488545087
333 355 -6.538748469507382E-1
333 371 1.1149387345476578
333 375 -2.6269653956286767
333 376 -1.165358447061705
333 377 -4.431224688720692
333 476 4.673107643855882E-1
333 477 -2.7307357830769635E-1
333 478 1.3002273347295175
334 239 2.5391272953759952E-2
334 240 1.3414382982393784
334 241 -3.941790445401866E-1
334 245 -2.4693109827160034
334 246 -2.822111696818434E-1
334 247 2.129886077651899
334 251 -1.3058121537497103
334 252 -2.123693172829232
334 253 -9.546475306326856E-1
334 278 -1.008872234218777
334 279 -1.949290885555249
334 280 -1.6390772331609413
334 281 -8.464809677538474E-1
334 282 3.0375587788641156E-1
334 301 -2.4514087294436853
334 302 1.1569999642330513
334 303 1.6422076815897055
334 304 4.0025372865284986E-1
334 305 5.512011079174415E-1
334 306 1.2145614185200282
334 323 -7.651775645509373
334 324 2.8657761148437064
334 325 -2.2582971007579538
334 334 2.7037665794801214E1
334 335 9.78485254012207E-1
334 336 -6.852974541477233E-1
334 337 -2.6542257276838233
334 345 -6.7757734152648315
334 346 1.628690455764675
334 361 -1.592632397932864
334 362 -1.8742453274516624
334 363 -5.57479914336363E-1
334 384 -3.9547729263022857
334 385 -9.696227151284944E-1
334 386 1.8205584160692796
334 393 1.0906155797472024
334 487 -6.01232566340336E-1
334 488 7.843919762308001E-1
334 489 2.846027602426021E-2
335 251 -3.2154575132738725
335 252 2.1396558674840666E-1
335 253 -3.462413230721797E-1
335 278 -6.852974541477228E-1
335 279 -2.654225727683823
335 283 -6.542383298890113E-1
335 284 5.808978014706798E-1
335 285 5.6096240144551834E-2
335 301 -9.829952332482549
335 302 3.6801086338341378
335 303 2.139165896892164
335 307 -5.1911737958815
335 308 1.9756444060426464
335 309 -6.563923634541486E-1
335 310 7.503345633860831E-1
335 311 8.543318599780144E-1
335 323 -4.316938374271185
335 324 8.253325576864875E-1
335 325 8.020077098378842E-1
335 334 9.78485254012207E-1
335 335 2.449207594116686E1
335 336 -2.2809291732406103
335 337 -3.168607119313811
335 338 5.574614448309027E-1
335 339 8.004519910596103E-2
335 350 -9.135027403848812E-1
335 367 -6.681315098978883E-1
335 384 -9.382769760289017E-1
335 385 -2.728371220183486
335 386 2.6178285806859114E-1
336 251 -1.405511636831363E-1
336 252 -5.139642577749942
336 253 2.8885717119779133
336 278 4.014919941195259
336 279 -5.93723085851659E-2
336 283 -2.9410219852930347E-1
336 284 -4.4893029261815585
336 285 3.053626956605926E-2
336 301 3.6801086338341378
336 302 -6.797853908052561
336 303 -9.678251812723999E-1
336 307 -4.5935128702314515E-1
336 308 2.0863417449601958
336 309 3.75684647151672E-1
336 310 -9.136611712364812E-1
336 311 -1.6879339117333423
336 323 1.2461811043247333
336 324 -6.49459785906186
336 325 -3.285173079589401
336 334 -6.852974541477233E-1
336 335 -2.2809291732406103
336 336 2.9432232353903046E1
336 337 1.1100871275959773E-1
336 338 -3.635138950414209
336 339 -2.99308588054763E-2
336 350 -5.195544527234632
336 367 1.2866281114968559
336 384 -2.7283712201834858
336 385 -7.814103751670578E-1
336 386 9.137769007220189E-1
337 251 4.2958914870183224E-1
337 252 2.8885717119779137
337 253 -6.370241608080615
337 278 -5.937230858516659E-2
337 279 -6.390153514673489E-1
337 283 5.609624012588735E-2
337 284 3.0536269566059038E-2
337 285 -1.2161375402121521E-1
337 301 2.1391658968921634
337 302 -9.678251812723997E-1
337 303 -6.129917814079481
337 307 1.2033278810250345
337 308 -1.1341655915213328E1
337 309 7.850138817171981E-2
337 310 -1.6879339117333423
337 311 -3.485960726351812
337 323 1.5743242348741613
337 324 -3.285173079589401
337 325 -7.1457381338195205
337 334 -2.6542257276838233
337 335 -3.168607119313811
337 336 1.1100871275959773E-1
337 337 3.2066256484696254E1
337 338 -2.9930858805476468E-2
337 339 7.344651343722871E-1
337 350 2.0863417449601958
337 367 8.004519913824366E-2
337 384 2.61782858068591E-1
337 385 9.137769007220192E-1
337 386 2.433421683964793
338 307 2.0122580820823177E-1
338 308 -1.7837421615140205
338 323 4.1991473933018847E-1
338 324 -1.9705867568593736
338 325 1.9140158045456839
338 335 5.574614448309027E-1
338 336 -3.635138950414209
338 337 -2.9930858805476468E-2
338 338 1.856486069142248E1
338 339 -2.0689839644944102E-1
338 347 -2.8356811480123356E-1
338 348 -2.8355785686637844
338 349 2.3893274352938287
338 350 -1.5568467869237494
338 367 3.129062157866764E-1
338 384 3.3306690738754696E-16
338 385 -2.94618161418809
338 467 -4.76073655751761E-1
338 468 -2.6747196675443603
338 469 -2.230834895147158
338 497 -7.318664376030024E-1
338 498 -2.9458083468289162
338 499 -5.19369279234162E-2
339 307 5.201452102503835E-1
339 308 -5.20909276088657
339 323 -8.695348881805347E-1
339 324 1.914015804545684
339 325 -5.5005361746378725
339 335 8.004519910596103E-2
339 336 -2.99308588054763E-2
339 337 7.344651343722871E-1
339 338 -2.0689839644944102E-1
339 339 2.3000141553548165E1
339 347 7.219162666941789E-1
339 348 2.389327435293829
339 349 -5.615328993219383
339 350 -1.7837421615140205
339 367 5.152460592434912E-1
339 384 -1.7763568394002505E-15
339 386 -2.94618161418809
339 467 -1.0599650655748338
339 468 -2.230834895147158
339 469 -5.730879729667421
339 497 9.214721846135544E-2
339 498 -5.1936927923416976E-2
339 499 1.2674125846788773
340 260 3.750075567326899E-2
340 261 1.3375304395748842
340 262 3.969414461935364E-1
340 301 -4.088799177090742
340 302 1.620021224785879E-1
340 303 -9.298349896812326E-2
340 307 -3.8924495677057807
340 308 4.416448236960972
340 309 -3.7606094770833015E-2
340 310 -1.4180903742732753
340 311 1.50919304818854
340 315 -3.9312044565802475
340 316 8.612137621253537E-13
340 317 2.1431472707347515E-1
340 318 -4.287600770858139E-1
340 319 -1.7696400970756705E-13
340 329 -2.464722229800722
340 330 -2.823205921493448E-1
340 331 -2.1292074234883276
340 332 4.0001618844281095E-1
340 333 -1.2136717584836338
340 340 2.7252676752246234E1
340 341 -1.9639686172176174
340 342 -1.7772914916208944
340 343 -8.322291374705704E-1
340 344 -2.624628703518871E-1
340 350 1.161578893155677
340 354 7.242304773167846E-1
340 355 5.506798913840644E-1
340 356 8.534651196987239E-1
340 371 -1.282367944931981
340 372 -3.4783664115224626
340 373 -2.32220818375957
340 374 8.153203120221529E-1
340 375 -8.015910332789744E-1
340 376 8.410041515988669E-1
340 377 4.765130326487946E-2
340 384 -2.0075469522991964
340 385 4.3989453855921323E-1
340 386 4.6821299778680325E-1
340 387 8.331115015485411E-1
340 388 -8.807125639005159E-1
340 389 -2.844938295606701
340 399 -6.2580425103144846
340 400 2.2297683595029936
341 260 3.60999916476952E-2
341 261 4.0337376068880415E-1
341 262 3.087471161371321E-1
341 301 -9.298349896812366E-2
341 302 5.061688175910516
341 303 -1.1343948019575244E1
341 307 4.416448236960972
341 308 -3.8822753156997165
341 309 1.5091930481885405
341 310 1.4620420835888028
341 311 1.1238742888853268
341 315 8.61782635561286E-13
341 316 -4.293211161225799
341 317 -1.7773562540712175E-13
341 318 7.125172943942133E-14
341 319 1.9746154549840669
341 329 -1.2326516832373215
341 330 -2.3082226910354398E-1
341 331 -2.5396848389245963
341 332 -2.790502296631364E-1
341 333 2.9360914859407554
341 340 -1.9639686172176174
341 341 2.988365169064622E1
341 342 9.467998678476733E-2
341 343 -1.995164209901143E-1
341 344 -1.745719602113586
341 350 -1.885641859041271
341 354 2.97389323191528E-14
341 355 5.68791577741183E-1
341 356 -2.715917386492248
341 371 4.0941223091800144E-1
341 372 -5.977740727156389E-2
341 373 4.6549104365999155E-1
341 374 -1.780964197538488
341 375 1.3946502689215975E-1
341 376 -1.2319520807848667
341 377 -1.1519778517154777
341 384 4.682129977868039E-1
341 385 -4.5964769429265555
341 386 -8.49340851705529
341 387 -2.8449382956066995
341 388 -7.804218252219944E-2
341 389 1.7201268537469407
341 399 -1.907295562971556E-1
341 400 -1.483471171388508E-1
342 257 -4.3226220504011765
342 258 2.4155938640944834
342 259 -8.651383158509747E-1
342 260 -5.229443729222543
342 261 6.401582285914871E-1
342 262 4.245682010007177E-1
342 283 2.1742606608974167
342 284 -9.391213956638783E-1
342 285 1.6685575500992516
342 301 -3.4222444987860103
342 302 3.032583521389341E-1
342 303 -2.514606293627348
342 309 -6.715302259601393
342 310 2.9071285246785026
342 311 2.0809706777583727
342 312 -1.020274219876887
342 313 -1.7132374462196476
342 314 9.360675595437112E-1
342 317 -3.6347612647788865
342 318 6.720933038335076E-1
342 319 2.82287152535372E-13
342 320 5.636841918715192E-1
342 321 -2.57142656873722E-1
342 322 -9.814765544524224E-14
342 326 -2.4480738629230543
342 327 -1.9687473166882946E-1
342 328 -1.7819937281245848
342 329 2.8802844073086376E-1
342 330 4.425453526539719E-1
342 331 -1.102840987146642
342 340 -1.7772914916208944
342 341 9.467998678476733E-2
342 342 2.554404008371104E1
342 343 -3.4421722580942395
342 344 1.0597353495625434
342 371 -8.32229137470571E-1
343 257 2.4155938640944843
343 258 -9.57810284283161
343 259 2.0292583661502794
343 260 6.401582285914862E-1
343 261 -1.0535038391260565
343 262 -2.878650726081784E-1
343 283 -9.391213956638773E-1
343 284 2.685764581509406
343 285 1.2468468332765075
343 301 3.032583521389344E-1
343 302 -3.99972809958052
343 303 -7.387865204205464E-1
343 309 2.9071285246785017
343 310 -7.7216512416777485
343 311 -2.138874711144547
343 312 -1.7132374462196482
343 313 -4.4949041189762945E-1
343 314 1.0400467145235605E-1
343 317 6.720933038335075E-1
343 318 -2.6427134527893426
343 319 -1.1250089045679174E-13
343 320 -2.57142656873722E-1
343 321 7.80712893417152E-1
343 322 -9.452655982448272E-15
343 326 -1.9687473166882946E-1
343 327 -1.61749220247408
343 328 -8.593742546222103E-1
343 329 4.425453526539719E-1
343 330 5.85355621178582E-1
343 331 9.32665304552166E-1
343 340 -8.322291374705704E-1
343 341 -1.995164209901143E-1
343 342 -3.4421722580942395
343 343 2.7960564856642353E1
343 344 -8.835819564559085E-2
343 371 -4.94971586237051
344 257 -1.103233553946271
344 258 2.8625916994775227
344 259 -5.414947644622596
344 260 -5.6884357387295E-1
344 261 -1.3368673873347847E-1
344 262 -9.149600692942961E-1
344 283 1.6685575500992518
344 284 1.246846833276507
344 285 -8.833861373699787E-1
344 301 -2.514606293627348
344 302 -7.387865204205463E-1
344 303 -6.802521236448633
344 309 2.080970677758373
344 310 -2.1388747111445476
344 311 -4.506292257467327
344 312 9.360675595437111E-1
344 313 1.0400467145235678E-1
344 314 3.0365315058590747E-1
344 317 2.8105110013164266E-13
344 318 -1.117590324018175E-13
344 319 -4.414791247928039
344 320 -9.72495393061127E-14
344 321 -1.0079038919126552E-14
344 322 2.297378758771115
344 326 -1.0081842043244034
344 327 -4.427075879584943E-1
344 328 -3.114714163227723
344 329 -2.8800064084120564E-1
344 330 3.6182030401374987E-1
344 331 2.5508295863717083
344 340 -2.624628703518871E-1
344 341 -1.745719602113586
344 342 1.0597353495625434
344 343 -8.835819564559085E-2
344 344 2.2645470862743444E1
344 371 -1.0328497543173574
345 239 -2.95573615120875
345 240 -2.168525390033863
345 241 1.322879728194689
345 278 1.0906155797472021
345 279 2.673700552078635
345 301 -4.0676956970010314E-1
345 302 -1.5403530064858428
345 303 -3.442323157442923
345 334 -6.7757734152648315
345 345 2.9793400904004866E1
345 346 -5.80377176006893
345 361 -2.033515395557174
345 362 3.5461793616254306E-1
345 363 1.4248086297714704E-1
345 384 2.498449318653362
345 385 1.9277178971827025
345 386 -2.2198322537817723
345 387 -9.002445333275862
345 388 -3.681107898112391E-1
345 389 5.385201135382451
345 393 -1.510651639442243E-1
345 394 -2.268465773857962
345 395 -2.1891966550765223
345 396 -5.968118259012531E-1
345 414 -4.634174426935508
345 415 2.097277233953394
345 416 1.2792489754479681
345 417 -4.214970156858038
345 418 9.470223583058497E-1
345 419 1.2592277431139878
346 239 4.8566858459140433E-1
346 240 1.0993859301684683
346 241 -1.314922314096268
346 278 -3.1990092065297504E-1
346 279 -2.860157400133833
346 301 -3.4423231574429245
346 302 -2.796678127191387
346 303 -3.132676200672294
346 334 1.628690455764675
346 345 -5.80377176006893
346 346 3.299937140421781E1
346 361 -1.1612965953422322E-1
346 362 -6.146102365601935E-1
346 363 -2.5308430951094576
346 384 -2.2198322537817714
346 385 2.193989751006246
346 386 2.9965169531894515
346 387 5.3852011353824505
346 388 5.736288517319577E-1
346 389 -1.7403389732202942E1
346 393 3.730818725691412
346 394 1.7644998165348635E-1
346 395 5.972656195146164E-1
346 396 -1.6428127543590887E-1
346 414 1.5509972642071888
346 415 -4.536634125490214
346 416 -7.686186683408339
346 417 2.355049409228644
346 418 7.273453178206965E-2
346 419 -9.034316563482241E-1
347 307 -1.4746285149644767
347 308 3.891719596359976E-1
347 338 -2.8356811480123356E-1
347 339 7.219162666941789E-1
347 347 4.0029513860228136E1
347 348 2.451672443570583
347 349 1.1230091112576396E1
347 350 1.2186924965996254E-1
347 351 -2.332421298602661E1
347 352 6.212412052508677E-1
347 353 -1.0510636534959295E1
347 367 -2.3424622674891937
347 375 -4.362914678949242
347 376 -1.6537496583384619
347 377 2.360420890602096
347 384 -8.795940674622342E-1
347 385 1.2979050108624746
347 386 -1.8525186603726653
347 458 -1.5347625007981042E-1
347 459 -1.2159932174518453
347 460 -1.6823071367434883E-2
347 464 1.0879259414654043
347 465 7.017487508607648E-1
347 466 9.163735088467602E-1
347 497 -8.580151036721961
347 498 -2.041125669613111
347 499 -3.237995471656035
348 307 -2.4894887036814745E-1
348 308 -2.2300255347037705
348 338 -2.8355785686637844
348 339 2.389327435293829
348 347 2.451672443570583
348 348 3.830106892313861E1
348 349 1.1168190370336286
348 350 -5.031441643797365
348 351 6.837412052494334E-1
348 352 -1.745307800464011E1
348 353 1.2288311027786105
348 367 -6.689847814435247E-1
348 375 -1.6537496583384614
348 376 -4.208064093518063
348 377 -4.839871573199932E-1
348 384 1.2979050108624755
348 385 1.5811078629085058
348 386 3.7984549445641685E-1
348 458 -8.930765508081198E-1
348 459 -9.329779372982109E-1
348 460 -1.0405900033163236
348 464 8.68415417527425E-1
348 465 -2.0709867981797195E-1
348 466 1.6384414704193273
348 497 -1.8369742162516602
348 498 -9.213937858311601
348 499 -2.998661844641725
349 307 1.1982181798181127E-1
349 308 -1.8215638253716517
349 338 2.3893274352938287
349 339 -5.615328993219383
349 347 1.1230091112576396E1
349 348 1.1168190370336286
349 349 5.766321983694823E1
349 350 -2.230025534703771
349 351 -1.1552303201619466E1
349 352 1.2288311027786105
349 353 -3.7982749628743484E1
349 367 1.4731662666509964
349 375 2.3604208906020974
349 376 -4.839871573199916E-1
349 377 -3.603771036169676
349 384 -1.8525186603726655
349 385 3.7984549445641547E-1
349 386 1.1068432224248406
349 458 2.7359359533591965E-1
349 459 -1.0405900033163231
349 460 7.100803693230051E-1
349 464 3.955401755167678E-1
349 465 1.6384414704193269
349 466 2.516649319001033E-1
349 497 -2.4478119966718555
349 498 -2.998661844641725
349 499 -1.0708394877091976E1
350 301 1.9519014037745006
350 302 1.1949941141008606
350 303 1.6581110229751415
350 307 -6.743827122401262E-1
350 308 1.6168883486818592E-1
350 309 -1.0275756696964087
350 310 -5.218860563530206
350 311 -2.1183743304087574
350 315 7.940258568455297E-1
350 316 1.9870058773558692
350 335 -9.135027403848812E-1
350 336 -5.195544527234632
350 337 2.0863417449601958
350 338 -1.5568467869237494
350 339 -1.7837421615140205
350 340 1.161578893155677
350 341 -1.885641859041271
350 347 1.2186924965996254E-1
350 348 -5.031441643797365
350 349 -2.230025534703771
350 350 5.718987254192791E1
350 351 1.0767487508593743
350 352 -1.3419945781036218
350 353 1.6384414704191625
350 354 -3.675202926988693E1
350 367 4.7821786173018416E-1
350 371 -1.8370479003038682
350 375 -1.2603619404209665
350 376 4.0604256263910127E-1
350 377 1.9592004320637277
350 384 -1.7085189532828453
350 385 -1.8571439488874824
350 386 -1.4730054969744635
351 307 -1.749313804250257
351 308 -1.1669598244727473
351 315 1.036178048279365
351 316 9.555037216729505E-1
351 332 -1.6301692866317938
351 333 7.242913227718983E-2
351 347 -2.332421298602661E1
351 348 6.837412052494334E-1
351 349 -1.1552303201619466E1
351 350 1.0767487508593743
351 351 3.246780160796924E1
351 352 -7.908384953812619E-1
351 353 1.185236788754265E1
351 354 1.7762312633661756E-1
351 355 -2.944057815845976E-1
351 375 -4.839207004675465
351 376 4.163336342344337E-17
351 377 1.017704989219119E-16
351 464 -3.1733655351213963E-1
351 465 -1.0646260324572414
351 466 -1.821084429491145E-1
351 476 -1.6437400211523427
351 477 2.1175722697767668E-1
351 478 2.1070727548539003E-2
352 307 9.309154175259056E-1
352 308 1.6384414704191625
352 315 -7.23768736660022E-2
352 316 -8.192207351004213E-1
352 332 -4.819057815865718E-1
352 333 -1.4336362866468968
352 347 6.212412052508677E-1
352 348 -1.745307800464011E1
352 349 1.2288311027786105
352 350 -1.3419945781036218
352 351 -7.908384953812619E-1
352 352 2.6144839429124175E1
352 353 -1.3824349908438989
352 354 -1.5882725334086933E-1
352 355 -1.874110988309721
352 375 8.326672684688674E-17
352 376 -1.9356828018701862
352 464 -7.312926991217987E-1
352 465 -1.1303629905272319
352 466 -1.0240259189031105
352 476 5.242572269788628E-1
352 477 -2.250782812332435
352 478 1.792045358296555
353 307 -6.461264911426798E-1
353 308 -8.83230966384094E-1
353 315 7.322894359934842E-1
353 316 1.5045809442385532
353 332 -7.460232486341485E-1
353 333 -5.703382767241553
353 347 -1.0510636534959295E1
353 348 1.2288311027786105
353 349 -3.7982749628743484E1
353 350 1.6384414704191625
353 351 1.185236788754265E1
353 352 -1.3824349908438989
353 353 4.9739957023204866E1
353 354 -8.192207351004217E-1
353 355 -1.4336362866468964
353 375 2.035409978438238E-16
353 377 -1.9356828018701862
353 464 1.1551060463215657E-1
353 465 -1.0240259189031105
353 466 5.268035253269427E-1
353 476 -7.973816534321678E-1
353 477 1.7920453582965545
353 478 -5.266295328531041
354 307 7.106925235119034E-1
354 308 1.9870058773558696
354 309 5.594658908850387E-1
354 310 -8.971098409720993E-1
354 311 1.7125350016148384
354 315 -1.5683781345472085
354 316 -2.651166440763514
354 317 -1.700186190531157E-1
354 318 2.454850761768471E-1
354 319 -6.422006255208413E-1
354 329 -3.191747090913384E-1
354 330 -2.1348064926749486
354 331 -1.4984681264404387
354 332 6.425410421127333E-1
354 333 1.9115150488545087
354 340 7.242304773167846E-1
354 341 2.97389323191528E-14
354 350 -3.675202926988693E1
354 351 1.7762312633661756E-1
354 352 -1.5882725334086933E-1
354 353 -8.192207351004217E-1
354 354 4.984824961660049E1
354 355 -8.84800208202018
354 371 -2.317669589079274
354 375 -7.569815974714165E-1
354 376 1.0147098351969697
354 377 -3.108103679029228E-14
355 315 3.9254104211115015E-1
355 316 1.9115150488545083
355 329 -1.674758727351746E-1
355 330 4.142957512027065E-2
355 331 -7.135562497354642E-2
355 332 -8.33796912543169E-2
355 333 -6.538748469507382E-1
355 340 5.506798913840644E-1
355 341 5.68791577741183E-1
355 351 -2.944057815845976E-1
355 352 -1.874110988309721
355 353 -1.4336362866468964
355 354 -8.84800208202018
355 355 1.2450432079702582E1
355 371 9.77629595866013E-1
355 375 -5.755827142482421E-1
355 376 -2.384197317505546
355 377 -5.945134465232886E-1
355 476 1.7762312632711724E-1
355 477 -3.631808628534176E-1
355 478 2.73073578498778E-1
356 260 -4.8950557729908534E-1
356 261 -1.1011899144419266
356 262 -1.321389989311587
356 301 3.0056045025557685
356 302 1.7893368057944499
356 303 -1.1136198456801942
356 340 8.534651196987239E-1
356 341 -2.715917386492248
356 356 3.1514978366119138E1
356 357 1.534256855521332E-1
356 371 -4.2009540589729666E-1
356 372 -1.1775059464417267E-1
356 373 -6.375429830456593E-1
356 374 4.59956619813623E-1
356 387 -3.168252302718747
356 388 -1.8861664768192463
356 389 -1.8240101928432807E1
356 399 4.099204255436055
356 400 -1.587314435328385
356 401 -1.7540021667426842E-1
356 402 -5.970461705618304E-1
356 431 -1.6523157771256318
356 432 4.512753112081964
356 433 -8.030619657764472
356 434 -2.3550494092286427
356 435 -7.273453178207034E-2
356 436 -7.067118638035859E-1
357 67 -8.317907519407886E-1
357 68 -3.237681870760756E-1
357 69 1.3217065683999374E-1
357 356 1.534256855521332E-1
357 357 2.3080059748944826E1
357 368 6.374983914632302E-1
357 369 -3.20004102890358
357 370 -4.166866690450322
357 372 5.876974225779021E-1
357 373 1.5885833544055344E-1
357 374 2.974282418978105E-1
357 387 3.522948889256085
357 388 9.667567764701402E-1
357 389 -8.266451856321675
357 399 5.970461705623895E-1
357 400 1.7540021667604655E-1
357 401 3.734089062826129E-3
357 402 4.3518126984413324E-1
357 428 -5.216807987047758E-1
357 429 -2.361456883045493E-2
357 430 2.6566917751372265E-2
357 434 -6.528036806434185E-1
357 435 2.72850682369612
357 436 -3.400621412440025
357 446 -3.3426497316334514
357 447 -9.172796373168827E-1
357 448 -7.855711291774116
358 49 -9.507860251684871
358 83 -1.642392136241365
358 358 3.740472316612101E1
358 359 -1.9734635612460765
358 360 4.032154020335387
358 361 -1.428593768025334E1
358 362 4.4194467089441614E-1
358 363 -1.8442178945200058
358 364 1.6080745483420742
358 365 -4.242240912949784E-1
358 366 4.7375544925066143E-1
358 381 -1.1585703406992245E1
358 382 8.590223822323926E-1
358 383 -1.2828549941751104
358 387 4.559484126333795
358 388 -2.6832439412431848
358 389 -1.0287549689639106
358 394 -2.373706207032357
358 395 1.0222719809461513
358 396 -6.271714932729094E-1
358 397 2.0801466387218434E-1
358 398 -7.431410627064162E-1
358 427 -1.9172814204809607
358 446 1.4027147510335511
358 447 1.9609052274323422
358 448 2.3652168438243018
358 490 -3.3841286836393105
358 491 -7.26297080505597E-1
358 492 -5.871936776448552E-1
358 493 2.792907212792404E-1
359 49 2.0801466387218365E-1
359 83 -1.917281420480959
359 358 -1.9734635612460765
359 359 3.2401948465738414E1
359 360 -4.5481445510087335
359 361 4.4194467089441447E-1
359 362 -8.534276661400474
359 363 6.901362361647554E-1
359 364 -9.81128343739943E-1
359 365 -1.6181955048760144E-1
359 366 -4.679989679928751
359 381 8.590223822323924E-1
359 382 -1.0508836225251034E1
359 383 4.416095462676197
359 387 -2.683243941243185
359 388 2.8436910476443784
359 389 -2.325430529335879
359 394 1.0222719809461518
359 395 -8.04613949101667
359 396 3.1983496032490084
359 397 -3.43236361846805
359 398 1.5592879902203188E-1
359 427 -1.191554677322127
359 446 1.9609052274323433
359 447 2.1286491837442556
359 448 -1.9749465176074383
359 490 1.6080745483420738
359 491 9.252012384221573E-1
359 492 4.737554492506618E-1
359 493 -3.7537019109449626E-1
360 49 2.0671666653601317E-1
360 83 2.0935324988087456E-1
360 358 4.032154020335387
360 359 -4.5481445510087335
360 360 3.206382695718276E1
360 361 -2.68479986349283
360 362 9.29816494639551E-2
360 363 -8.726814625028139
360 364 1.3398400499972134
360 365 -1.4498535613209546E-2
360 366 5.219266663563955E-1
360 381 -1.2828549941751117
360 382 4.4160954626762
360 383 -1.64323475840946E1
360 387 -1.0287549689639113
360 388 -2.3254305293358786
360 389 1.267775383230871
360 394 -4.221815895952038E-1
360 395 2.2202644729915915
360 396 -4.210174434465843
360 397 -1.4421347172806231E-1
360 398 -3.735895136832737
360 427 4.0162676819475873E-1
360 446 2.3652168438243013
360 447 -1.9749465176074377
360 448 1.614950246206747
360 490 -1.5648643253591534
360 491 -1.1018602062337226
360 492 1.700149610096352E-1
360 493 -7.249620643521237E-1
361 278 -1.874245327451662
361 279 3.183728829663876E-1
361 334 -1.592632397932864
361 345 -2.033515395557174
361 346 -1.1612965953422322E-1
361 358 -1.428593768025334E1
361 359 4.4194467089441447E-1
361 360 -2.68479986349283
361 361 3.637210156720106E1
361 362 -4.014156691652165
361 363 2.9009383186543705
361 364 2.3489091073599258
361 381 6.177200254724343
361 382 -2.7088003973489845
361 383 2.0511579699140974
361 384 -7.795493294952394
361 385 -1.7056769659800247E-1
361 386 -5.2977634556002435
361 387 -5.215333744551366
361 388 2.7410463355758243
361 389 3.085327243503306
361 393 3.5461793616254317E-1
361 394 -3.685287492338362
361 395 1.2506314563904255
361 396 -5.885523298971029E-1
361 487 -3.6803539155077862
361 488 1.6306206066676814
361 489 5.127189090394025E-1
361 490 -4.260747900832117
361 491 -1.8127001555316455E-1
362 278 -8.611047272999579E-1
362 279 7.001240527635876E-1
362 334 -1.8742453274516624
362 345 3.5461793616254306E-1
362 346 -6.146102365601935E-1
362 358 4.4194467089441614E-1
362 359 -8.534276661400474
362 360 9.29816494639551E-2
362 361 -4.014156691652165
362 362 3.428961516084197E1
362 363 -9.037611877497102E-2
362 364 -9.416466060011846
362 381 -2.708800397348985
362 382 3.63102037936146
362 383 1.7710668955226112
362 384 -1.7056769659800303E-1
362 385 -6.289841263310599
362 386 8.74459665982275E-1
362 387 2.741046335575825
362 388 -4.223160185287436
362 389 -2.517691124056216
362 393 -7.554822635696515
362 394 1.2506314563904246
362 395 -2.3043869168097308E-1
362 396 -1.5931913605311096E-1
362 487 1.6306206066676812
362 488 -8.105253155156313E-1
362 489 -6.727120522181467E-1
362 490 2.3489091073599258
362 491 6.160764039302101E-1
363 278 -3.531676203682721E-3
363 279 7.579357291154367E-1
363 334 -5.57479914336363E-1
363 345 1.4248086297714704E-1
363 346 -2.5308430951094576
363 358 -1.8442178945200058
363 359 6.901362361647554E-1
363 360 -8.726814625028139
363 361 2.9009383186543705
363 362 -9.037611877497102E-2
363 363 3.167328327983258E1
363 364 1.6277783051384171
363 381 2.051157969914098
363 382 1.771066895522611
363 383 1.9107110821657778
363 384 -5.297763455600242
363 385 8.744596659822745E-1
363 386 -1.2333656471144996E1
363 387 3.085327243503305
363 388 -2.517691124056216
363 389 -6.959634304740237
363 393 -1.7112986015596527
363 394 4.1444672162599994E-1
363 395 -4.673653082940475E-1
363 396 -9.147347469821709E-4
363 487 -5.864735824447934E-1
363 488 -1.7317827391948762E-1
363 489 1.620722971888785E-1
363 490 -3.08416269773517E-1
363 491 -3.952139157532862
364 358 1.6080745483420742
364 359 -9.81128343739943E-1
364 360 1.3398400499972134
364 361 2.3489091073599258
364 362 -9.416466060011846
364 363 1.6277783051384171
364 364 4.5859260995752926E1
364 366 -1.0855136785776848E1
364 378 1.962687314876578E-1
364 379 9.11512549611095
364 380 -1.1063461733741253E-1
364 381 6.136223818635222E-1
364 382 -7.445038073710623
364 383 -2.508023319324549E-2
364 384 -1.6900572231704867
364 385 -4.640488476629198
364 386 -3.5647856386289516
364 482 1.7888418054070185
364 483 -2.0742817644288656
364 484 -9.704326937381109E-1
364 485 -7.556100574781832E-2
364 486 -1.242416687000267
364 487 -2.037055636815297
364 488 -3.9369500876655428
364 489 8.238517413379179E-1
364 490 2.2193842107869002E-1
364 491 -1.2824700974638747
364 492 -3.6859705924771315
364 493 -5.625591654692833E-1
364 505 7.109894626718389E-1
364 506 -1.2830979272232021E1
364 507 3.966909036357597
364 606 -2.79391762766899
365 49 3.563914917209626E-2
365 50 -1.873534966664952
365 51 5.021837096343654E-1
365 52 -3.903871087185023
365 83 3.5832416091202433
365 103 1.8359929808842121
365 104 -2.498381594071404
365 105 8.472241592260001E-1
365 111 1.131807313533138
365 358 -4.242240912949784E-1
365 359 -1.6181955048760144E-1
365 360 -1.4498535613209546E-2
365 365 2.607974434689567E1
365 366 3.9601331825306013E-1
365 381 -3.561512379531001
365 382 -2.2247494466401125
365 383 -9.76341342944223
365 397 -3.648580423014842E-1
365 398 -3.3457963309407903
365 426 -2.752777647471478
365 427 5.092192825260196E-1
365 492 -1.2782383826555268
365 493 -3.0607678738107107
365 603 3.6628376320466305E-1
365 604 -5.117065950487509E-2
365 605 -6.576964971279617E-2
365 625 -1.161437009458283
365 626 3.6212994209316847
365 627 -2.590786601549048
365 759 2.947863559682969
365 760 -1.4292873503963857
365 868 -4.7007423245944047E-1
365 869 -8.595437518727908E-1
366 83 1.7587625484531384
366 358 4.7375544925066143E-1
366 359 -4.679989679928751
366 360 5.219266663563955E-1
366 364 -1.0855136785776848E1
366 365 3.9601331825306013E-1
366 366 4.688225070749256E1
366 381 -1.5185428973903703
366 382 -1.336950470016291E1
366 383 -1.5048228631168088
366 427 -3.110671031703412
366 485 -7.401989696824132E-1
366 486 3.1878824440829643
366 490 -3.685970592477128
366 491 -1.4765810701090104E-1
366 492 4.05873352743872
366 493 -1.903907822377004
366 505 2.024930895453412
366 506 8.754347655194183
366 507 -7.883435082419612E-1
366 603 -1.9457317604390876
366 604 -4.314093097873305
366 605 -2.0274951139753616
366 606 -2.029001419649882E1
366 625 -4.2573820060692985E-1
366 626 9.828111292572947E-1
366 627 2.2664049860296167
367 307 -1.728304240819026
367 308 1.3249960600751587
367 323 -2.2259195279399964
367 324 7.262560191420043E-1
367 325 -1.6743857379709202
367 335 -6.681315098978883E-1
367 336 1.2866281114968559
367 337 8.004519913824366E-2
367 338 3.129062157866764E-1
367 339 5.152460592434912E-1
367 347 -2.3424622674891937
367 348 -6.689847814435247E-1
367 349 1.4731662666509964
367 350 4.7821786173018416E-1
367 367 1.7617206102308803E1
367 384 -7.365454035470225
367 385 1.6653345369377348E-16
367 386 -8.881784197001252E-16
367 467 -2.6676447617946932
367 468 -8.198236557754244E-1
367 469 -1.811215065563934
367 497 -6.192897588977871E-1
367 498 -1.3151997709367707
367 499 9.214721842696477E-2
368 67 -9.49047947284466
368 68 2.1720492152236226E-1
368 69 7.362415749136553E-1
368 85 -1.612808275010393
368 86 -1.9091909779141472
368 87 4.287178558822229E-1
368 357 6.374983914632302E-1
368 368 3.58516255543849E1
368 369 -1.6919049329355196
368 370 -4.055033954189779
368 372 -1.3078268751263263E1
368 373 2.502975997883385E-1
368 374 1.7429046957978684
368 378 -3.5527978193503045
368 379 1.5872575731636036
368 380 7.528355128783741E-1
368 381 -1.0816247423556694E1
368 382 6.208908793627932E-1
368 383 1.356744631768775
368 387 3.889429972707158
368 388 -2.61175154883117
368 389 1.0918729839407275
368 401 -2.3614273236469816
368 402 1.0725556563588843
368 446 1.7762102682129914
368 447 1.8576582714841665
368 448 -2.391725343396961
368 619 -6.052367296327474E-1
368 620 6.069825580006881E-1
368 621 -3.000563490581145E-1
369 67 2.1720492152236298E-1
369 68 -3.435918556912048
369 69 -1.5242645289594792E-1
369 85 -1.9091909779141465
369 86 -1.161693781866286
369 87 1.5707547903532726E-1
369 357 -3.20004102890358
369 368 -1.6919049329355196
369 369 3.1044231096290286E1
369 370 4.299196289700767
369 372 2.5029759978833865E-1
369 373 -7.776552790393737
369 374 -6.529790335033043E-1
369 378 1.587257573163602
369 379 -1.0345597790994887
369 380 -9.251366637141316E-1
369 381 6.208908793627937E-1
369 382 -9.741170356028238
369 383 -4.227444782440797
369 387 -2.611751548831169
369 388 2.3231178930183507
369 389 2.3793720282487905
369 401 1.072555656358884
369 402 -7.698834812850928
369 446 1.8576582714841654
369 447 2.1880856193459484
369 448 1.9666925115864862
369 619 6.069825580006889E-1
369 620 -4.706704531503853
369 621 3.556916528863908E-1
370 67 -2.1003958544826162E-1
370 68 1.5129238673465958E-1
370 69 -3.7397474948842255
370 85 -2.0145829279035438E-1
370 86 -4.0584505116955794E-1
370 87 5.570068560107111E-3
370 357 -4.166866690450322
370 368 -4.055033954189779
370 369 4.299196289700767
370 370 3.1292267963785054E1
370 372 2.5446562931894974
370 373 -5.3808547263276996E-2
370 374 -8.181306587616143
370 378 1.588816985546738
370 379 -1.3404678447424656
370 380 -1.1620674299745275
370 381 1.3567446317687737
370 382 -4.2274447824407995
370 383 -1.600225534263472E1
370 387 1.0918729839407268
370 388 2.379372028248791
370 389 9.423349664235481E-1
370 401 4.316930674674447E-1
370 402 -2.2217893176703614
370 446 -2.391725343396961
370 447 1.966692511586487
370 448 1.7422244770241497
370 619 -1.5552678608782616E-1
370 620 -5.471976729842425E-1
370 621 -7.301539302329132E-1
371 260 1.3375304395748842
371 261 -2.5747936038734562
371 262 -4.824572391959994E-1
371 301 1.6200212247858758E-1
371 302 -6.67166633482134
371 303 5.061688175910515
371 307 1.1615788931556779
371 308 -1.8856418590412718
371 309 -1.418090374273275
371 310 6.098043988102648E-1
371 311 1.4620420835888026
371 315 7.242304773167846E-1
371 316 2.969094353832224E-14
371 317 -4.2876007708581354E-1
371 318 8.441232930893187E-1
371 319 7.168035744441263E-14
371 329 -2.823205921493448E-1
371 330 -1.2858161215610264
371 331 -5.949912692094189E-1
371 332 5.506798913840645E-1
371 333 1.1149387345476578
371 340 -1.282367944931981
371 341 4.0941223091800144E-1
371 342 -8.32229137470571E-1
371 343 -4.94971586237051
371 344 -1.0328497543173574
371 350 -1.8370479003038682
371 354 -2.317669589079274
371 355 9.77629595866013E-1
371 356 -4.2009540589729666E-1
371 371 3.036739569802439E1
371 372 -2.3222081837595705
371 373 -4.369833205303614
371 374 1.169343886844196
371 375 8.41004151598867E-1
371 376 -4.937939631843975
371 377 -1.268704586991758E-1
371 384 4.398945385592138E-1
371 385 -4.953680826588302
371 386 -4.596476942926557
371 387 -8.807125639005166E-1
371 388 4.849675712987306
371 389 -7.804218252219983E-2
371 399 2.2297683595029927
371 400 -3.7504656230319267
372 340 -3.4783664115224626
372 341 -5.977740727156389E-2
372 356 -1.1775059464417267E-1
372 357 5.876974225779021E-1
372 368 -1.3078268751263263E1
372 369 2.5029759978833865E-1
372 370 2.5446562931894974
372 371 -2.3222081837595705
372 372 4.670211425256039E1
372 373 -3.7314879484439363
372 374 -6.496156958760598
372 375 -3.4785486354969324
372 376 1.6288721958088974
372 377 -4.6653854924213123E-1
372 378 -1.5725825317885851E1
372 379 2.0903788272699715
372 380 3.9662936152570007
372 381 1.1864165355134467E1
372 382 -2.310162163164024
372 383 -4.1320617337138055
372 384 -7.892562679179299E-1
372 385 4.125297491475917E-1
372 386 3.2787215101560827
372 387 -1.8985592669801648E1
372 388 1.9980214049965723
372 389 8.9491640245179E-1
372 399 1.693393998046307E-1
372 400 8.548074532958893E-1
372 401 -3.1997609536113996
372 402 1.1289510650602683
373 340 -2.32220818375957
373 341 4.6549104365999155E-1
373 356 -6.375429830456593E-1
373 357 1.5885833544055344E-1
373 368 2.502975997883385E-1
373 369 -7.776552790393737
373 370 -5.3808547263276996E-2
373 371 -4.369833205303614
373 372 -3.7314879484439363
373 373 4.046599110482686E1
373 374 2.918469629654383
373 375 1.6288721958088965
373 376 -7.196848836401232E-1
373 377 6.754236890630229E-1
373 378 2.09037882726997
373 379 -1.6492949189897555E1
373 380 -3.575121383552589
373 381 -2.3101621631640246
373 382 7.079450724085519
373 383 -4.97220304956024E-2
373 384 4.125297491475909E-1
373 385 5.137475391709456E-1
373 386 -8.394491556907708E-1
373 387 1.998021404996573
373 388 -1.5320321401382392E1
373 389 9.374014022299468E-1
373 399 8.548074532958909E-1
373 400 -3.29437647551783
373 401 1.128951065060268
373 402 -8.547142194807644E-2
374 340 8.153203120221529E-1
374 341 -1.780964197538488
374 356 4.59956619813623E-1
374 357 2.974282418978105E-1
374 368 1.7429046957978684
374 369 -6.529790335033043E-1
374 370 -8.181306587616143
374 371 1.169343886844196
374 372 -6.496156958760598
374 373 2.918469629654383
374 374 4.381149051579943E1
374 375 5.918012732668466E-1
374 376 1.7877250918673407E-1
374 377 2.1458184656331175E-1
374 378 4.0922102931026325
374 379 -4.587339852209162
374 380 -1.6307246889768674E1
374 381 -4.132061733713807
374 382 -4.972203049560299E-2
374 383 8.499004533986872
374 384 3.278721510156083
374 385 -8.394491556907719E-1
374 386 -4.513880207238481
374 387 8.949164024517879E-1
374 388 9.37401402229947E-1
374 389 -2.2499063875899253E1
374 399 -3.7433881976152167E-1
374 400 4.582786830706579E-1
374 401 -4.1331697456144456E-1
374 402 4.672239609129222E-1
375 307 1.4529514730672577
375 308 1.5709132017989067
375 315 5.895579428488651E-1
375 316 -8.995259216315727E-13
375 332 -3.8239991967109748
375 333 -2.6269653956286767
375 340 -8.015910332789744E-1
375 341 1.3946502689215975E-1
375 347 -4.362914678949242
375 348 -1.6537496583384614
375 349 2.3604208906020974
375 350 -1.2603619404209665
375 351 -4.839207004675465
375 352 8.326672684688674E-17
375 353 2.035409978438238E-16
375 354 -7.569815974714165E-1
375 355 -5.755827142482421E-1
375 371 8.41004151598867E-1
375 372 -3.4785486354969324
375 373 1.6288721958088965
375 374 5.918012732668466E-1
375 375 3.6958980539785784E1
375 376 -6.905210736699421E-1
375 377 3.9627049046716163
375 378 -9.665696620613563
375 379 -2.093886203868144
375 380 -6.924045455139406E-1
375 384 -7.525719936659549
375 385 1.2630537429849047
375 386 -4.710183230458548
375 458 -1.4716743141744497
375 459 1.6832139237664328
375 460 3.626156124873167E-1
375 464 -6.756651203137812E-1
375 465 1.241759825072466
375 466 3.6715898111872823E-13
375 476 -3.647477226016952
375 477 9.176344326992736E-1
375 478 -2.4896862672780853
375 497 2.434544218206448
375 498 2.120432884848462E-1
375 499 3.1431116149539564
375 500 -4.02154012216664
375 501 8.148365724171036E-1
375 502 -6.566028379000353E-1
375 505 2.8779997151481655
375 506 -1.5713349448156209
375 507 -9.551902478930786E-1
376 307 -1.2603619404209676
376 308 1.9592004320637284
376 315 -7.569815974714165E-1
376 316 -3.1028129588667076E-14
376 332 -5.755827142482424E-1
376 333 -1.165358447061705
376 340 8.410041515988669E-1
376 341 -1.2319520807848667
376 347 -1.6537496583384619
376 348 -4.208064093518063
376 349 -4.839871573199916E-1
376 350 4.0604256263910127E-1
376 351 4.163336342344337E-17
376 352 -1.9356828018701862
376 354 1.0147098351969697
376 355 -2.384197317505546
376 371 -4.937939631843975
376 372 1.6288721958088974
376 373 -7.196848836401232E-1
376 374 1.7877250918673407E-1
376 375 -6.905210736699421E-1
376 376 3.2893099093802014E1
376 377 -3.769690227410919
376 378 -2.093886203868144
376 379 -4.216096001099995
376 380 -2.720517251358127E-1
376 384 1.263053742984904
376 385 -7.5720031198019875
376 386 3.891058125434073
376 458 1.6832139237664339
376 459 -9.968964696551227E-1
376 460 -9.660063755055057E-1
376 464 1.241759825072466
376 465 2.4181998728769022E-1
376 466 1.2771418211368311E-14
376 476 9.176344326992738E-1
376 477 -1.8575612600521612
376 478 1.0282629886166978
376 497 2.1204328848484721E-1
376 498 3.0708586340074526
376 499 -8.5451267554773E-2
376 500 8.148365724171021E-1
376 501 -9.273214647649596
376 502 4.449815716489516
376 505 -1.571334944815622
376 506 4.7481011370352644E-1
376 507 -3.532612491017155
377 307 1.5709132017989083
377 308 1.5356599822507744
377 315 -9.004373271315438E-13
377 316 3.0795892651474825
377 332 -1.6560914562382707
377 333 -4.431224688720692
377 340 4.765130326487946E-2
377 341 -1.1519778517154777
377 347 2.360420890602096
377 348 -4.839871573199932E-1
377 349 -3.603771036169676
377 350 1.9592004320637277
377 351 1.017704989219119E-16
377 353 -1.9356828018701862
377 354 -3.108103679029228E-14
377 355 -5.945134465232886E-1
377 371 -1.268704586991758E-1
377 372 -4.6653854924213123E-1
377 373 6.754236890630229E-1
377 374 2.1458184656331175E-1
377 375 3.9627049046716163
377 376 -3.769690227410919
377 377 3.6223041739664936E1
377 378 -1.5177073723694474
377 379 -8.514139449395468E-1
377 380 -4.223552197654932
377 384 -4.710183230458547
377 385 3.891058125434072
377 386 -1.5951212447312017E1
377 458 3.626156124873166E-1
377 459 -9.660063755055068E-1
377 460 1.0324784861533836
377 464 3.6727823029637977E-13
377 465 1.2886293942009837E-14
377 466 1.3244548460493917
377 476 -1.5725697167952986
377 477 5.025435863347423E-1
377 478 -2.9999948246110604
377 497 3.1431116149539577
377 498 -8.545126755476995E-2
377 499 -1.933001704308829
377 500 -5.69136954781462E-1
377 501 3.3823195360748097
377 502 -7.395714245482313
377 505 -9.551902478930783E-1
377 506 -3.5326124910171544
377 507 2.1632563201590466E-1
378 364 1.962687314876578E-1
378 368 -3.5527978193503045
378 369 1.587257573163602
378 370 1.588816985546738
378 372 -1.5725825317885851E1
378 373 2.09037882726997
378 374 4.0922102931026325
378 375 -9.665696620613563
378 376 -2.093886203868144
378 377 -1.5177073723694474
378 378 5.562263724723638E1
378 379 3.7221416800811036E-1
378 380 -1.9195350024966908
378 381 -1.6090776437162116E1
378 382 4.037510368734691E-1
378 383 -2.3713926319610437
378 384 -5.80877651917187
378 385 -1.8670005510518668
378 386 3.2196019535263964
378 387 1.0378590799796214E1
378 388 3.7308552980021764E-1
378 389 -3.655091751721671
378 490 8.274913366609201
378 491 -5.849819049281879E-2
378 500 -4.54511372550109
378 501 1.9477041598912637
378 502 -2.5887437208444712
378 505 -1.0264314052687288E1
378 506 6.90350350595845E-1
378 507 2.629845443638751
378 613 1.041516644042919
378 614 -1.1177345081824502E-1
378 615 9.613288426660183E-1
378 619 -9.664357565312638
378 620 -3.5883501713518795
378 621 -3.8083484859439387E-1
379 364 9.11512549611095
379 368 1.5872575731636036
379 369 -1.0345597790994887
379 370 -1.3404678447424656
379 372 2.0903788272699715
379 373 -1.6492949189897555E1
379 374 -4.587339852209162
379 375 -2.093886203868144
379 376 -4.216096001099995
379 377 -8.514139449395468E-1
379 378 3.7221416800811036E-1
379 379 5.153051150112692E1
379 380 3.469936914688242
379 381 4.037510368734696E-1
379 382 -1.0689224578157216E1
379 383 -1.326341924487944
379 384 -1.8670005510518675
379 385 -7.2054846005297755
379 386 2.669451425508682
379 387 3.7308552980021703E-1
379 388 6.046644806948281
379 389 2.8354628208949597
379 490 1.9626873148765836E-1
379 491 -1.1063461733741067E-1
379 500 1.9477041598912634
379 501 -2.157154076753526
379 502 9.898360562844902E-1
379 505 6.90350350595844E-1
379 506 -1.177503383019859E1
379 507 -3.6689044571813243
379 613 -1.1177345081824491E-1
379 614 -2.793839251147537
379 615 1.2778422399685787
379 619 -3.588350171351881
379 620 -1.0327940497302473E1
379 621 6.425731835529013E-1
380 364 -1.1063461733741253E-1
380 368 7.528355128783741E-1
380 369 -9.251366637141316E-1
380 370 -1.1620674299745275
380 372 3.9662936152570007
380 373 -3.575121383552589
380 374 -1.6307246889768674E1
380 375 -6.924045455139406E-1
380 376 -2.720517251358127E-1
380 377 -4.223552197654932
380 378 -1.9195350024966908
380 379 3.469936914688242
380 380 4.540083129899532E1
380 381 -2.371392631961042
380 382 -1.3263419244879433
380 383 -1.2371912333681998E1
380 384 3.2196019535263964
380 385 2.6694514255086825
380 386 -6.791730753711911
380 387 -3.6550917517216703
380 388 2.8354628208949593
380 389 1.1327834613737133E1
380 490 -5.849819049281946E-2
380 491 6.799273461512605E-1
380 500 -1.5733122997583497
380 501 3.867327403539245E-1
380 502 -2.1990298832326194
380 505 2.6298454436387524
380 506 -3.6689044571813247
380 507 -8.040117997331086
380 613 9.720074884788732E-1
380 614 2.8314883913651195E-1
380 615 1.2347577439696633
380 619 -1.2703495918348842
380 620 2.3345803082689393E-1
380 621 -7.547693517497627
381 49 2.295730286896485
381 67 2.275613680949751
381 68 2.1345956118278746
381 69 2.0645891046745897
381 83 -5.463479367742568
381 85 -5.487023554385083
381 86 -1.80586433524139
381 87 3.6319594977682197
381 103 -1.2396426464573649E1
381 104 2.3060436777490545
381 105 -1.5755688876207045E-2
381 111 -2.6169620820482287
381 358 -1.1585703406992245E1
381 359 8.590223822323924E-1
381 360 -1.2828549941751117
381 361 6.177200254724343
381 362 -2.708800397348985
381 363 2.051157969914098
381 364 6.136223818635222E-1
381 365 -3.561512379531001
381 366 -1.5185428973903703
381 368 -1.0816247423556694E1
381 369 6.208908793627937E-1
381 370 1.3567446317687737
381 372 1.1864165355134467E1
381 373 -2.3101621631640246
381 374 -4.132061733713807
381 378 -1.6090776437162116E1
381 379 4.037510368734696E-1
381 380 -2.371392631961042
381 381 9.141204164541789E1
381 382 3.379735951427275
381 383 -1.100241774960175
381 384 1.0824756144398628
381 385 -3.1862366716077775
381 386 -7.155342028606322E-1
381 387 -1.0216334957765943E1
381 388 1.1728258787482035
381 389 2.017457400917003
381 397 2.14145745042869
381 398 -2.0695708589550623
381 427 -1.7536758516413884
381 446 -2.878085233382597
381 447 2.000387335774165
381 448 1.177134372270829E-2
381 485 5.214756864529006
381 486 1.7194598204036515E-1
381 490 -1.0222266238740309E1
381 491 4.431008361157523
381 492 -1.0804745876341293E1
381 493 2.386548069229604E-1
381 505 -6.4069092801857765
381 506 1.0706484710614614
381 507 -6.44642524366695E-2
381 606 2.260914781771037
381 613 5.470142830214934
381 614 2.4703262711361997
381 615 -1.8636035061777992E-1
381 619 -1.145091479269637E1
381 620 -1.7020281604654006
381 621 -4.903071305787553E-1
381 622 4.185065534008183
381 623 1.6257742396071457
381 624 2.7039602043312544E-2
381 625 -1.4866453145471773E1
381 626 -5.4577237909557175
381 627 9.40244517728494E-3
381 759 -1.291825887318508
381 760 -2.167514744059315E-2
382 49 2.141457450428688
382 67 2.1345956118278737
382 68 1.851076065371094
382 69 -1.8425529317229474
382 83 -1.7536758516413873
382 85 -1.8058643352413881
382 86 -3.961691793791023
382 87 2.2619972337545518
382 103 2.306043677749053
382 104 -5.219190175868815
382 105 1.0984988084220703E-2
382 111 3.401045987028681
382 358 8.590223822323926E-1
382 359 -1.0508836225251034E1
382 360 4.4160954626762
382 361 -2.7088003973489845
382 362 3.63102037936146
382 363 1.771066895522611
382 364 -7.445038073710623
382 365 -2.2247494466401125
382 366 -1.336950470016291E1
382 368 6.208908793627932E-1
382 369 -9.741170356028238
382 370 -4.2274447824407995
382 372 -2.310162163164024
382 373 7.079450724085519
382 374 -4.972203049560299E-2
382 378 4.037510368734691E-1
382 379 -1.0689224578157216E1
382 380 -1.3263419244879433
382 381 3.379735951427275
382 382 9.428417999609943E1
382 383 5.596500716976847E-1
382 384 -3.1862366716077766
382 385 6.168266249788665
382 386 5.227043997392913E-1
382 387 1.1728258787482035
382 388 -1.4425377229251671E1
382 389 -1.6434200504355
382 397 1.8725528412505639
382 398 1.8355446645312643
382 427 -4.034596429510735
382 446 2.000387335774166
382 447 -9.407015153649013
382 448 1.0529107987788777E-2
382 485 2.260914781771037
382 486 -4.00855712534665
382 490 6.13622381863523E-1
382 491 -2.508023319324865E-2
382 492 -1.5185428973903723
382 493 -1.5048228631168081
382 505 1.0706484710614632
382 506 -5.319386661791199E-1
382 507 -8.850761381245667E-2
382 606 4.479515479509303
382 613 2.470326271136202
382 614 4.91148851583632
382 615 4.013989779080034
382 619 -1.7020281604654022
382 620 -1.4138729942238012E1
382 621 1.5093674830266401
382 622 1.6257742396071442
382 623 -2.2494588200568204
382 624 3.9791021523665676E-2
382 625 -5.45772379095572
382 626 -2.1956824094475806E1
382 627 1.9083946422367028E-2
382 759 -2.616962082048227
382 760 -2.9606052354248763E-2
383 49 -2.0695708589550614
383 67 2.064589104674589
383 68 -1.842552931722948
383 69 -5.085593689451495E-1
383 83 -3.561512379531001
383 85 3.6319594977682197
383 86 2.261997233754553
383 87 -9.693259153451077
383 103 -1.5755688876206875E-2
383 104 1.0984988084221013E-2
383 105 -3.5013483764219764
383 111 -2.9606052354248596E-2
383 358 -1.2828549941751104
383 359 4.416095462676197
383 360 -1.64323475840946E1
383 361 2.0511579699140974
383 362 1.7710668955226112
383 363 1.9107110821657778
383 364 -2.508023319324549E-2
383 365 -9.76341342944223
383 366 -1.5048228631168088
383 368 1.356744631768775
383 369 -4.227444782440797
383 370 -1.600225534263472E1
383 372 -4.1320617337138055
383 373 -4.97220304956024E-2
383 374 8.499004533986872
383 378 -2.3713926319610437
383 379 -1.326341924487944
383 380 -1.2371912333681998E1
383 381 -1.100241774960175
383 382 5.596500716976847E-1
383 383 1.003599020943816E2
383 384 -7.15534202860632E-1
383 385 5.227043997392911E-1
383 386 6.438192849919934
383 387 2.0174574009170043
383 388 -1.6434200504355003
383 389 -7.821835611369833
383 397 1.8355446645312667
383 398 -5.165983119056989E-1
383 427 -2.2247494466401156
383 446 1.1771343722708116E-2
383 447 1.0529107987787362E-2
383 448 -2.200294234907015
383 485 1.7194598204036476E-1
383 486 1.7383380579321135
383 490 4.431008361157523
383 491 -6.073613397479862
383 492 2.3865480692295782E-1
383 493 -1.6213626668176744E1
383 505 -6.446425243666888E-2
383 506 -8.85076138124583E-2
383 507 -5.09045136069165E-2
383 606 -4.008557125346648
383 613 -1.8636035061777984E-1
383 614 4.013989779080032
383 615 1.8693267204430042
383 619 -4.903071305787564E-1
383 620 1.5093674830266384
383 621 -1.6769508327864287E1
383 622 2.7039602043313238E-2
383 623 3.979102152366665E-2
383 624 5.07639671527483
383 625 9.4024451772854E-3
383 626 1.9083946422367843E-2
383 627 -1.1117732595972463E1
383 759 -2.1675147440593914E-2
383 760 3.14533719585045
384 278 -9.696227151284944E-1
384 279 1.8205584160692778
384 301 -3.1764966198951208
384 302 4.6882837716406817E-1
384 303 -4.2206675594521803E-1
384 307 -4.432152955539173
384 308 -3.310551960509375
384 323 -1.579941283465165
384 324 -9.381254774919829E-1
384 325 3.001913035523661
384 334 -3.9547729263022857
384 335 -9.382769760289017E-1
384 336 -2.7283712201834858
384 337 2.61782858068591E-1
384 338 3.3306690738754696E-16
384 339 -1.7763568394002505E-15
384 340 -2.0075469522991964
384 341 4.682129977868039E-1
384 345 2.498449318653362
384 346 -2.2198322537817714
384 347 -8.795940674622342E-1
384 348 1.2979050108624755
384 349 -1.8525186603726655
384 350 -1.7085189532828453
384 361 -7.795493294952394
384 362 -1.7056769659800303E-1
384 363 -5.297763455600242
384 364 -1.6900572231704867
384 367 -7.365454035470225
384 371 4.398945385592138E-1
384 372 -7.892562679179299E-1
384 373 4.125297491475909E-1
384 374 3.278721510156083
384 375 -7.525719936659549
384 376 1.263053742984904
384 377 -4.710183230458547
384 378 -5.80877651917187
384 379 -1.8670005510518675
384 380 3.2196019535263964
384 381 1.0824756144398628
384 382 -3.1862366716077766
384 383 -7.15534202860632E-1
384 384 7.424876740857923E1
384 385 -4.804346850296533
384 386 -2.0096972203787606
384 387 -2.1483458347800035E1
384 388 5.810526307572622
384 389 4.0405851167397415
384 393 1.9277178971827031
384 467 -6.2165573853560085E-2
384 468 1.1281624340672052
384 469 1.9443256345325723
384 487 -7.254501596722283
384 488 8.318114342444528E-1
384 489 4.085450399940125
384 490 -1.7159265137901465
384 491 -1.7853032256380201
384 497 -5.5605285523310695
384 498 2.7461147801242065
384 499 1.2906454565668957E-1
384 505 4.500370077988678
384 506 1.7363030869020337
384 507 7.323449754528924E-2
385 278 -5.063317902268153
385 279 4.341529580735161
385 301 4.6882837716406595E-1
385 302 -1.3617612023074539E1
385 303 -1.676429798871811
385 307 -1.7085189532828453
385 308 -1.4730054969744633
385 323 -9.381254774919832E-1
385 324 1.1907038895609512
385 325 5.442818759158903E-1
385 334 -9.696227151284944E-1
385 335 -2.728371220183486
385 336 -7.814103751670578E-1
385 337 9.137769007220192E-1
385 338 -2.94618161418809
385 340 4.3989453855921323E-1
385 341 -4.5964769429265555
385 345 1.9277178971827025
385 346 2.193989751006246
385 347 1.2979050108624746
385 348 1.5811078629085058
385 349 3.7984549445641547E-1
385 350 -1.8571439488874824
385 361 -1.7056769659800247E-1
385 362 -6.289841263310599
385 363 8.744596659822745E-1
385 364 -4.640488476629198
385 367 1.6653345369377348E-16
385 371 -4.953680826588302
385 372 4.125297491475917E-1
385 373 5.137475391709456E-1
385 374 -8.394491556907719E-1
385 375 1.2630537429849047
385 376 -7.5720031198019875
385 377 3.891058125434072
385 378 -1.8670005510518668
385 379 -7.2054846005297755
385 380 2.6694514255086825
385 381 -3.1862366716077775
385 382 6.168266249788665
385 383 5.227043997392911E-1
385 384 -4.804346850296533
385 385 7.143939416501541E1
385 386 2.485544092279826
385 387 5.810526307572623
385 388 -1.4462304079083763E1
385 389 -2.530800717473698
385 393 1.9100310209997062
385 467 1.128162434067205
385 468 1.8817384087235147
385 469 -4.071877559378115E-1
385 487 8.318114342444536E-1
385 488 -7.3944909351915795
385 489 -3.7058957399497015
385 490 -1.690057223170486
385 491 -3.564785638628952
385 497 2.746114780124209
385 498 -4.550150309576581
385 499 -2.821896892900605E-2
385 505 1.7363030869020335
385 506 -3.3508796618706063
385 507 5.608903602891131E-3
386 278 4.341529580735161
386 279 -1.0502062750577029E1
386 301 -4.2206675594521603E-1
386 302 -1.6764297988718122
386 303 -3.2279988635531525
386 307 -3.3105519605093763
386 308 -3.9607143941770686
386 323 3.0019130355236605
386 324 5.442818759158903E-1
386 325 -1.256953641033642
386 334 1.8205584160692796
386 335 2.6178285806859114E-1
386 336 9.137769007220189E-1
386 337 2.433421683964793
386 339 -2.94618161418809
386 340 4.6821299778680325E-1
386 341 -8.49340851705529
386 345 -2.2198322537817723
386 346 2.9965169531894515
386 347 -1.8525186603726653
386 348 3.7984549445641685E-1
386 349 1.1068432224248406
386 350 -1.4730054969744635
386 361 -5.2977634556002435
386 362 8.74459665982275E-1
386 363 -1.2333656471144996E1
386 364 -3.5647856386289516
386 367 -8.881784197001252E-16
386 371 -4.596476942926557
386 372 3.2787215101560827
386 373 -8.394491556907708E-1
386 374 -4.513880207238481
386 375 -4.710183230458548
386 376 3.891058125434073
386 377 -1.5951212447312017E1
386 378 3.2196019535263964
386 379 2.669451425508682
386 380 -6.791730753711911
386 381 -7.155342028606322E-1
386 382 5.227043997392913E-1
386 383 6.438192849919934
386 384 -2.0096972203787606
386 385 2.485544092279826
386 386 8.247577488952285E1
386 387 4.0405851167397415
386 388 -2.5308007174736993
386 389 -1.1990601580054086E1
386 393 2.193989751006246
386 467 1.9443256345325712
386 468 -4.0718775593781187E-1
386 469 1.4783297873628165
386 487 4.085450399940127
386 488 -3.7058957399497015
386 489 -1.6327924412652845E1
386 490 -1.7853032256380184
386 491 -2.046198426804841
386 497 1.2906454565668857E-1
386 498 -2.8218968929005994E-2
386 499 -2.6294648751305827E-1
386 505 7.32344975452889E-2
386 506 5.608903602891962E-3
386 507 3.676391180631809
387 301 -9.95021528376191
387 302 -4.657548003175192
387 303 4.2750245395571446E-1
387 340 8.331115015485411E-1
387 341 -2.8449382956066995
387 345 -9.002445333275862
387 346 5.3852011353824505
387 356 -3.168252302718747
387 357 3.522948889256085
387 358 4.559484126333795
387 359 -2.683243941243185
387 360 -1.0287549689639113
387 361 -5.215333744551366
387 362 2.741046335575825
387 363 3.085327243503305
387 368 3.889429972707158
387 369 -2.611751548831169
387 370 1.0918729839407268
387 371 -8.807125639005166E-1
387 372 -1.8985592669801648E1
387 373 1.998021404996573
387 374 8.949164024517879E-1
387 378 1.0378590799796214E1
387 379 3.7308552980021703E-1
387 380 -3.6550917517216703
387 381 -1.0216334957765943E1
387 382 1.1728258787482035
387 383 2.0174574009170043
387 384 -2.1483458347800035E1
387 385 5.810526307572623
387 386 4.0405851167397415
387 387 9.47661082869844E1
387 388 -4.9870931154098175
387 389 -6.384108136405143
387 393 -3.6811078981123985E-1
387 394 -2.894275846429812
387 395 8.493952677916364E-2
387 396 -3.3661819735956566
387 399 -9.169210212201682
387 400 1.0330803255370595
387 401 -3.662502923001092
387 402 1.454446104672202E-3
387 414 2.8902352653299346
387 415 5.375694012227146E-1
387 416 -8.348928592910352E-1
387 417 -4.189463893786066
387 418 2.2565197404669295
387 419 -3.413472134704892
387 431 6.860992674871122
387 432 -1.1268049953272004
387 433 8.955829554745546E-1
387 434 -8.848130683447998
387 435 4.0379525006620645
387 436 3.416891200056614
387 446 -2.056098873174777E1
387 447 -2.731756439767728
387 448 -8.25933586702307E-2
388 301 -4.657548003175193
388 302 -5.505895124263868
388 303 1.0684084587212634
388 340 -8.807125639005159E-1
388 341 -7.804218252219944E-2
388 345 -3.681107898112391E-1
388 346 5.736288517319577E-1
388 356 -1.8861664768192463
388 357 9.667567764701402E-1
388 358 -2.6832439412431848
388 359 2.8436910476443784
388 360 -2.3254305293358786
388 361 2.7410463355758243
388 362 -4.223160185287436
388 363 -2.517691124056216
388 368 -2.61175154883117
388 369 2.3231178930183507
388 370 2.379372028248791
388 371 4.849675712987306
388 372 1.9980214049965723
388 373 -1.5320321401382392E1
388 374 9.37401402229947E-1
388 378 3.7308552980021764E-1
388 379 6.046644806948281
388 380 2.8354628208949593
388 381 1.1728258787482035
388 382 -1.4425377229251671E1
388 383 -1.6434200504355003
388 384 5.810526307572622
388 385 -1.4462304079083763E1
388 386 -2.5308007174736993
388 387 -4.9870931154098175
388 388 7.64164300412259E1
388 389 3.1514706437248297
388 393 -7.638889948494571
388 394 8.493952677916296E-2
388 395 -3.332479238211995
388 396 -9.231846676537799E-1
388 399 1.0330803255370586
388 400 -9.719151863590012
388 401 1.454446104671774E-3
388 402 -3.8204856033560497
388 414 5.37569401222715E-1
388 415 -3.641567499518299
388 416 3.6021183043656246
388 417 2.2565197404669304
388 418 2.3720059408153904E-1
388 419 1.659789619112579
388 431 -1.1268049953272001
388 432 -2.3532020723798142E-1
388 433 -3.5878135049863364
388 434 4.037952500662065
388 435 -3.785440761355719
388 436 -1.658505844343805
388 446 -2.731756439767729
388 447 -6.606366954871994
388 448 -2.335380787343044E-2
389 301 4.275024539557136E-1
389 302 1.0684084587212637
389 303 -1.3455858963535965
389 340 -2.844938295606701
389 341 1.7201268537469407
389 345 5.385201135382451
389 346 -1.7403389732202942E1
389 356 -1.8240101928432807E1
389 357 -8.266451856321675
389 358 -1.0287549689639106
389 359 -2.325430529335879
389 360 1.267775383230871
389 361 3.085327243503306
389 362 -2.517691124056216
389 363 -6.959634304740237
389 368 1.0918729839407275
389 369 2.3793720282487905
389 370 9.423349664235481E-1
389 371 -7.804218252219983E-2
389 372 8.9491640245179E-1
389 373 9.374014022299468E-1
389 374 -2.2499063875899253E1
389 378 -3.655091751721671
389 379 2.8354628208949597
389 380 1.1327834613737133E1
389 381 2.017457400917003
389 382 -1.6434200504355
389 383 -7.821835611369833
389 384 4.0405851167397415
389 385 -2.530800717473698
389 386 -1.1990601580054086E1
389 387 -6.384108136405143
389 388 3.1514706437248297
389 389 9.005607040472213E1
389 393 5.736288517319583E-1
389 394 -3.366181973595659
389 395 -9.231846676537796E-1
389 396 -7.440975702665339
389 399 -3.168252302718746
389 400 -1.8861664768192457
389 401 3.522948889256087
389 402 9.6675677647014E-1
389 414 -8.348928592910352E-1
389 415 3.6021183043656237
389 416 2.23731502027281
389 417 -3.4134721347048926
389 418 1.6597896191125794
389 419 -1.1413141841127605
389 431 8.955829554745546E-1
389 432 -3.5878135049863364
389 433 4.5876500237661055
389 434 3.4168912000566154
389 435 -1.658505844343805
389 436 -3.62005407992577
389 446 -8.259335867023182E-2
389 447 -2.3353807873430596E-2
389 448 -5.410098513821242
390 167 -2.0858509402471612
390 168 4.1445396140305485E-1
390 169 -2.730735784045742E-1
390 182 2.7118283602906934E-1
390 233 -1.5213723759368845
390 234 -3.907770363879078E-1
390 235 7.135562506679388E-2
390 390 1.172897400608716E1
390 391 -1.9455261289062864E-1
390 392 6.538748467607021E-1
390 406 -5.224498571854664
390 407 9.159290982436292E-1
390 408 -1.9115150488240784
390 409 -6.869468236823196E-1
390 410 1.4336362866172203
390 414 -2.2995405861557436E-1
390 415 1.2849197465431172
390 416 -5.687915777460489E-1
390 420 -2.9384808954619457
390 421 -1.3430263332289454
390 422 5.945134465299851E-1
391 167 -1.6887937192835367E-1
391 168 -1.2742869950390534E-2
391 169 -4.255463784454007E-1
391 182 -1.1244468236806193
391 233 4.67229636103923E-2
391 234 5.597638446531408E-2
391 235 -3.994740909066453E-1
391 390 -1.9455261289062864E-1
391 391 1.2975551945488121E1
391 392 -4.8297007685680455
391 406 1.4992624315750371
391 407 -5.9834283103781
391 408 2.9735563032550405
391 409 8.403801399213133E-1
391 410 7.460232487440379E-1
391 414 1.2849197465431175
391 415 -1.5777186758978023
391 416 2.790502295634476E-1
391 420 -1.3430263332289454
391 421 -6.298018613648457
391 422 1.6560914563575653
392 167 2.7307357840201224E-1
392 168 -4.673107644100903E-1
392 169 -6.22085363755962E-2
392 182 1.4336362866172194
392 233 -4.994893754732836E-1
392 234 -5.518956493597834E-1
392 235 2.83429817606072E-1
392 390 6.538748467607021E-1
392 391 -4.8297007685680455
392 392 1.4574961532101831E1
392 406 -1.9115150488240777
392 407 2.0806991603993437
392 408 -9.893807729594887
392 409 -7.242913220658809E-2
392 410 -1.697621934957266
392 414 -1.1149387345526347
392 415 1.2136717583838341
392 416 5.731556780573004E-1
392 420 1.165358447070062
392 421 2.6269653957613297
392 422 -3.7779088268374568
393 239 -2.168525390033863
393 240 -2.9678679111190585
393 241 1.9394860700539849
393 278 -1.6399320247083904
393 279 -5.918157903872238E-1
393 301 -1.540353006485843
393 302 -1.2520374205787395
393 303 -2.7966781271913868
393 334 1.0906155797472024
393 345 -1.510651639442243E-1
393 346 3.730818725691412
393 361 3.5461793616254317E-1
393 362 -7.554822635696515
393 363 -1.7112986015596527
393 384 1.9277178971827031
393 385 1.9100310209997062
393 386 2.193989751006246
393 387 -3.6811078981123985E-1
393 388 -7.638889948494571
393 389 5.736288517319583E-1
393 393 3.0669567259196977E1
393 394 -2.1891966550765214
393 395 -2.2641302876416107
393 396 -1.7501418674745917E-1
393 414 2.097277233953393
393 415 -8.88432245721857
393 416 -3.4924394494938906
393 417 9.470223583058488E-1
393 418 -3.775955947392323E-1
393 419 3.2932275689601237E-1
394 49 -1.6482027171040987
394 345 -2.268465773857962
394 346 1.7644998165348635E-1
394 358 -2.373706207032357
394 359 1.0222719809461518
394 360 -4.221815895952038E-1
394 361 -3.685287492338362
394 362 1.2506314563904246
394 363 4.1444672162599994E-1
394 387 -2.894275846429812
394 388 8.493952677916296E-2
394 389 -3.366181973595659
394 393 -2.1891966550765214
394 394 2.2098373365420436E1
394 395 -4.2228864470787336E-1
394 396 -3.5909475482022507E-1
394 397 -1.9714947210284832
394 398 1.3738124942459262E-1
394 411 -3.538879071079834
394 412 7.785207462964321E-1
394 413 -4.565709125276689E-1
394 417 -2.445146919407174
394 418 1.5359029127715296
394 419 3.3729323855588905E-1
394 446 -3.2444093381708328
394 447 -8.928660237082284E-2
394 448 3.538458039278788
395 49 -1.971494721028483
395 345 -2.1891966550765223
395 346 5.972656195146164E-1
395 358 1.0222719809461513
395 359 -8.04613949101667
395 360 2.2202644729915915
395 361 1.2506314563904255
395 362 -2.3043869168097308E-1
395 363 -4.673653082940475E-1
395 387 8.493952677916364E-2
395 388 -3.332479238211995
395 389 -9.231846676537796E-1
395 393 -2.2641302876416107
395 394 -4.2228864470787336E-1
395 395 2.587263425740354E1
395 396 -5.274322359416848E-1
395 397 -1.6412088722512752
395 398 -3.692244969944717E-1
395 411 7.78520746296433E-1
395 412 1.2153095361970734E-1
395 413 2.2941989282579675E-1
395 417 1.5359029127715296
395 418 -7.69598926590559
395 419 -1.730175129099497
395 446 -8.928660237082355E-2
395 447 -2.7837793643151327
395 448 9.70431852651475E-1
396 49 8.32014675473385E-1
396 345 -5.968118259012531E-1
396 346 -1.6428127543590887E-1
396 358 -6.271714932729094E-1
396 359 3.1983496032490084
396 360 -4.210174434465843
396 361 -5.885523298971029E-1
396 362 -1.5931913605311096E-1
396 363 -9.147347469821709E-4
396 387 -3.3661819735956566
396 388 -9.231846676537799E-1
396 389 -7.440975702665339
396 393 -1.7501418674745917E-1
396 394 -3.5909475482022507E-1
396 395 -5.274322359416848E-1
396 396 2.3005721480641053E1
396 397 3.2374372789889677E-1
396 398 1.2934487015943164E-1
396 411 5.216807987047757E-1
396 412 2.3614568830455346E-2
396 413 2.6566917751373154E-2
396 417 6.456588640301992E-1
396 418 -2.7311895262338015
396 419 -3.450056091599682
396 446 3.5384580392787868
396 447 9.70431852651475E-1
396 448 -7.8952310296381
397 49 3.957352127235599E-1
397 50 -1.9211581288179673
397 51 -1.3496076108838615
397 52 -5.031720210738803E-1
397 80 9.757439788636059E-1
397 81 -2.3025141744016214E-1
397 82 3.969632890638207E-1
397 83 -1.1054206370336828E-1
397 103 -6.846378695977379E-1
397 104 -4.375434481399375
397 105 1.2868952371429567
397 358 2.0801466387218434E-1
397 359 -3.43236361846805
397 360 -1.4421347172806231E-1
397 365 -3.648580423014842E-1
397 381 2.14145745042869
397 382 1.8725528412505639
397 383 1.8355446645312667
397 394 -1.9714947210284832
397 395 -1.6412088722512752
397 396 3.2374372789889677E-1
397 397 2.778089449974446E1
397 398 4.7173412586512925E-1
397 411 2.425298182476545
397 412 -6.8056275505608745
397 413 -1.7882863672531724E-1
397 427 -8.711241320316452
397 446 -1.458416705217028
397 447 -3.107712469674971
397 448 -3.1238088726733255
398 49 -9.129504885842716E-1
398 50 5.031720210738798E-1
398 51 1.429668685320734E-1
398 52 1.9279440673501358E-1
398 80 5.757775375078092E-1
398 81 1.4797768620571977E-1
398 82 -1.8363827824761725E-1
398 83 -2.1136179929720647E-1
398 103 4.228191388182312
398 104 1.2868952371429563
398 105 -8.444683241747793
398 358 -7.431410627064162E-1
398 359 1.5592879902203188E-1
398 360 -3.735895136832737
398 365 -3.3457963309407903
398 381 -2.0695708589550623
398 382 1.8355446645312643
398 383 -5.165983119056989E-1
398 394 1.3738124942459262E-1
398 395 -3.692244969944717E-1
398 396 1.2934487015943164E-1
398 397 4.7173412586512925E-1
398 398 2.390028408871074E1
398 411 6.495790320687647E-1
398 412 -1.1251097970813646
398 413 -2.934485060519227
398 427 5.770957854499867E-1
398 446 -2.157077018714404
398 447 -3.123808872673324
398 448 -5.061327005411319
399 260 -2.9665396506705646
399 261 -2.1709331843960893
399 262 -1.3287390182963912
399 301 1.3315590572165559
399 302 -9.800453313871069E-1
399 303 3.0056045025557685
399 340 -6.2580425103144846
399 341 -1.907295562971556E-1
399 356 4.099204255436055
399 357 5.970461705623895E-1
399 371 2.2297683595029927
399 372 1.693393998046307E-1
399 373 8.548074532958909E-1
399 374 -3.7433881976152167E-1
399 387 -9.169210212201682
399 388 1.0330803255370586
399 389 -3.168252302718746
399 399 2.744395890164534E1
399 400 -1.8940882360059557
399 401 -1.923140484089906
399 402 -1.9757318059837856
399 431 -4.866880632432249
399 432 2.04833496615014
399 433 -1.3805674883664119
399 434 -3.7610438689576373
399 435 8.54807453286856E-1
399 436 -1.2592277431139867
400 260 -2.1709331843960897
400 261 -2.966539650691854
400 262 -1.9404233554443004
400 301 -9.800453313871071E-1
400 302 1.8532684874085028
400 303 1.7893368057944494
400 340 2.2297683595029936
400 341 -1.483471171388508E-1
400 356 -1.587314435328385
400 357 1.7540021667604655E-1
400 371 -3.7504656230319267
400 372 8.548074532958893E-1
400 373 -3.29437647551783
400 374 4.582786830706579E-1
400 387 1.0330803255370595
400 388 -9.719151863590012
400 389 -1.8861664768192457
400 399 -1.8940882360059557
400 400 2.8736594220211224E1
400 401 -1.9757318059837852
400 402 -1.9231404840947608
400 431 2.048334966150139
400 432 -8.638860617061605
400 433 3.4685584360856403
400 434 8.548074532868563E-1
400 435 -2.973279936317391E-1
400 436 -3.2932275689601254E-1
401 67 -1.6371366171487054
401 68 -1.970233241071711
401 69 -1.3914198027575175E-1
401 356 -1.7540021667426842E-1
401 357 3.734089062826129E-3
401 368 -2.3614273236469816
401 369 1.072555656358884
401 370 4.316930674674447E-1
401 372 -3.1997609536113996
401 373 1.128951065060268
401 374 -4.1331697456144456E-1
401 387 -3.662502923001092
401 388 1.454446104671774E-3
401 389 3.522948889256087
401 399 -1.923140484089906
401 400 -1.9757318059837852
401 401 2.1495264465536422E1
401 402 -4.2776410010560145E-1
401 428 -3.538879071079835
401 429 7.785207462964323E-1
401 430 4.5657091252766896E-1
401 434 -2.3678392017031236
401 435 1.3936272431094423
401 436 -3.444380551691089E-1
401 446 -2.8045778912553785
401 447 -1.3800097686012397E-3
401 448 -3.342649731633453
402 67 -1.970233241071711
402 68 -1.6371366171356796
402 69 3.688805845858607E-1
402 356 -5.970461705618304E-1
402 357 4.3518126984413324E-1
402 368 1.0725556563588843
402 369 -7.698834812850928
402 370 -2.2217893176703614
402 372 1.1289510650602683
402 373 -8.547142194807644E-2
402 374 4.672239609129222E-1
402 387 1.454446104672202E-3
402 388 -3.8204856033560497
402 389 9.6675677647014E-1
402 399 -1.9757318059837856
402 400 -1.9231404840947608
402 401 -4.2776410010560145E-1
402 402 2.51304849578495E1
402 428 7.78520746296433E-1
402 429 1.2153095361970667E-1
402 430 -2.2941989282579642E-1
402 434 1.3936272431094412
402 435 -7.432266448258705
402 436 1.727492426561816
402 446 -1.380009768601441E-3
402 447 -2.6546805238250077
402 448 -9.172796373168831E-1
403 173 -2.085850940264609
403 174 4.1445396140579E-1
403 175 2.730735784045744E-1
403 182 -9.822505614839494E-1
403 266 -1.916199916520272
403 267 -4.041637132923131E-1
403 268 -1.1022160692929663
403 295 -8.836904570899027E-1
403 296 2.5349123120910477E-2
403 297 1.3851140685842223
403 403 1.2094193081727138E1
403 404 1.604070654448983E-1
403 405 6.876973496146306E-1
403 406 -1.5835748338550728
403 407 3.181560115278621E-1
403 408 5.740982997441066E-1
403 409 -4.1735813706349656E-1
403 410 -1.7920453582706306
403 431 -1.540645736267709
403 432 2.141532910918508
403 433 5.687915777460492E-1
403 437 -3.1019806362456244
403 438 -2.2383772220621587
403 439 -5.945134465299862E-1
404 173 -1.688793719294691E-1
404 174 -1.274286995415308E-2
404 175 4.255463784454012E-1
404 182 -1.146524803731863
404 266 4.8323531606019876E-2
404 267 -2.848166140266378E-1
404 268 4.377392445737762E-1
404 295 7.545157897892778E-1
404 296 1.1621991972147294
404 297 1.6740556338929852E-1
404 403 1.604070654448983E-1
404 404 1.4209162611007411E1
404 405 4.6425145523583105
404 406 4.490020999647868E-1
404 407 -4.1870424698496445
404 408 -3.21476118239048
404 409 6.851028868673978E-1
404 410 -5.233028704552924E-1
404 431 2.141532910918508
404 432 -4.619011234437348
404 433 -2.7905022956344844E-1
404 437 -2.2383772220621583
404 438 -6.952851506821755
404 439 -1.6560914563575666
405 173 -2.7307357840201263E-1
405 174 4.673107644100907E-1
405 175 -6.2208536385202406E-2
405 182 -1.79204535827063
405 266 -5.313710687528885E-1
405 267 2.3185723159889798E-1
405 268 -5.636372440365095E-1
405 295 1.3851140685842231
405 296 5.394293729124657E-1
405 297 5.579719186281069E-1
405 403 6.876973496146306E-1
405 404 4.6425145523583105
405 405 1.2743784652097906E1
405 406 5.740982997441069E-1
405 407 -2.3356242776299334
405 408 -6.14863169536812
405 409 2.95149510495334E-1
405 410 -1.8650027006402206
405 431 1.1149387345526351
405 432 -1.2136717583838348
405 433 -1.1061218303116933
405 437 -1.1653584470700644
405 438 -2.6269653957613306
405 439 -3.556154563984268
406 182 -1.2773287752465013E1
406 233 -1.2709099623843287E-1
406 234 -7.447409878674291E-1
406 235 1.4984681264182758
406 272 -2.497870164349452
406 273 -8.574696858186237E-2
406 274 2.500038671503694E-1
406 295 -1.4947589655909653E1
406 296 -4.374869544681669E-1
406 297 -2.454726651456906
406 390 -5.224498571854664
406 391 1.4992624315750371
406 392 -1.9115150488240777
406 403 -1.5835748338550728
406 404 4.490020999647868E-1
406 405 5.740982997441069E-1
406 406 4.25843886949644E1
406 407 -5.233623919340701
406 408 1.8388662231659803
406 409 4.859011420176322
406 410 2.048051838022506E-1
406 414 -8.113843012988832
406 415 3.7611599230806574
406 416 1.6384414704197583
406 420 9.07602141562584E-1
406 421 -3.4401842436755956
406 422 -1.7125350016202336
406 431 1.7873598538486886
406 432 2.9983245317795273
406 433 -1.638441470419755
406 437 -1.1595702714565809E-2
406 438 -3.624977332642575
406 439 1.7125350016202312
407 182 3.6923447535096554
407 233 -4.530743212019811E-1
407 234 -1.4795935242753663E-1
407 235 1.6759170998607048E-1
407 272 6.284324531864712E-1
407 273 6.752765247961592E-1
407 274 -7.135911994411482E-1
407 295 4.375130455330513E-1
407 296 -8.422877593686701
407 297 5.194623684073668E-1
407 390 9.159290982436292E-1
407 391 -5.9834283103781
407 392 2.0806991603993437
407 403 3.181560115278621E-1
407 404 -4.1870424698496445
407 405 -2.3356242776299334
407 406 -5.233623919340701
407 407 3.884036588759237E1
407 408 4.08731025872063E-1
407 409 -7.174613290075341
407 410 -1.2726878759375704E-1
407 414 3.7611599230806574
407 415 -1.5217289543980602E1
407 416 -2.76270387217571
407 420 -3.440184243675596
407 421 3.4210789297074014
407 422 -2.0197646753570018
407 431 2.9983245317795264
407 432 -7.860485280857027E-2
407 433 2.762703872175705
407 437 -3.624977332642575
407 438 -1.7249059288894442
407 439 2.019764675357001
408 182 2.048051838022509E-1
408 233 1.4984681264182755
408 234 9.116393290311874E-1
408 235 -2.1849289736940065
408 272 2.5000386715036943E-1
408 273 -7.27311437536299E-1
408 274 8.343877297452327E-1
408 295 -2.4547266514569066
408 296 -2.2458525063775048E-1
408 297 -8.511287697036593
408 390 -1.9115150488240784
408 391 2.9735563032550405
408 392 -9.893807729594887
408 403 5.740982997441066E-1
408 404 -3.21476118239048
408 405 -6.14863169536812
408 406 1.8388662231659803
408 407 4.08731025872063E-1
408 408 3.602267035382621E1
408 409 -1.2726878759375712E-1
408 410 -4.758968331429772
408 414 1.6384414704197594
408 415 -2.7627038721757105
408 416 -7.740817263637285
408 420 -1.7125350016202345
408 421 -2.0197646753570018
408 422 2.360149038918818
408 431 -1.6384414704197545
408 432 2.762703872175706
408 433 -1.5665191954356428E-1
408 437 1.7125350016202319
408 438 2.019764675357001
408 439 1.7788648781396355E-1
409 167 4.9410019627039464E-1
409 168 2.669024386702698E-1
409 169 -2.1070727598877848E-2
409 173 6.255531763174478E-1
409 174 3.942996618804009E-1
409 175 -1.4683389411120173E-1
409 182 -1.129204585528563
409 183 -3.7451552464897917
409 184 -5.27877125834971
409 185 9.594549811986182E-2
409 390 -6.869468236823196E-1
409 391 8.403801399213133E-1
409 392 -7.242913220658809E-2
409 403 -4.1735813706349656E-1
409 404 6.851028868673978E-1
409 405 2.95149510495334E-1
409 406 4.859011420176322
409 407 -7.174613290075341
409 408 -1.2726878759375712E-1
409 409 2.7750286018751357E1
409 410 -2.3492467104767906E-2
409 420 -8.749999999987621E-1
409 421 -8.518753059814806
409 422 -3.1249999999955858
409 437 8.749999999987665E-1
409 438 -8.964833537850879
409 439 3.124999999995582
410 167 -1.79204535827231
410 168 7.973816533528153E-1
410 169 -2.032282879939047
410 173 1.433636286617927
410 174 -9.652862750628941E-1
410 175 -1.8760541261659671
410 182 3.072077757034292E-1
410 183 2.0480518380211277E-1
410 184 9.594549811986114E-2
410 185 -4.0006315187394454
410 390 1.4336362866172203
410 391 7.460232487440379E-1
410 392 -1.697621934957266
410 403 -1.7920453582706306
410 404 -5.233028704552924E-1
410 405 -1.8650027006402206
410 406 2.048051838022506E-1
410 407 -1.2726878759375704E-1
410 408 -4.758968331429772
410 409 -2.3492467104767906E-2
410 410 2.3223996130937987E1
410 420 3.7340296492144086E-16
410 421 -3.124999999995587
410 422 -3.407501223925921
410 437 -2.717099106485312E-16
410 438 3.124999999995583
410 439 -3.5859334151403455
411 49 -3.9882317052362666
411 80 -4.331693073740671
411 81 -2.9395398034885147
411 82 -1.7811679202520514
411 103 3.902628620266868
411 104 -2.8922526803016874E-1
411 105 3.6433379094250545E-1
411 106 -1.477527684329752
411 107 7.25287705222791E-1
411 108 3.420524235786764
411 201 1.1277814692457317
411 202 6.074355906701163E-1
411 203 -2.3910180142054553
411 394 -3.538879071079834
411 395 7.78520746296433E-1
411 396 5.216807987047757E-1
411 397 2.425298182476545
411 398 6.495790320687647E-1
411 411 2.8506152403045302E1
411 412 -7.807382940967342E-1
411 413 2.6700577909091567
411 417 -1.4003222691877562
411 418 -1.9316196209714351
411 419 -7.969131564709186E-1
411 423 -4.483758154317535
411 424 1.8406431991135912
411 425 -5.421672731417514
411 446 -7.766696334002839
411 447 -4.360624371926228E-1
411 448 -3.784858026729272
412 49 2.4252981824765456
412 80 -2.939539803488515
412 81 -4.930916811238589
412 82 -2.0783861428956474
412 103 -2.8922526803016846E-1
412 104 2.0177943392749226E-1
412 105 2.812127419932815
412 106 7.252877052227908E-1
412 107 1.1518087950913372
412 108 -3.706004190194514E-1
412 201 -3.0971769829693514
412 202 -1.317143723017789
412 203 7.402486930102747E-1
412 394 7.785207462964321E-1
412 395 1.2153095361970734E-1
412 396 2.3614568830455346E-2
412 397 -6.8056275505608745
412 398 -1.1251097970813646
412 411 -7.807382940967342E-1
412 412 3.0743145400421138E1
412 413 5.741744603177638
412 417 -1.9316196209714347
412 418 -2.4409462505617103
412 419 -2.0493494207200086E-1
412 423 1.8406431991135914
412 424 -1.0028446620596162E1
412 425 6.07435590670118E-1
412 446 -4.360624371926234E-1
412 447 -6.695183627084554
412 448 -2.441527000913368
413 49 3.458601924322882E-1
413 80 -1.2182473900492876
413 81 -1.4482099942412061
413 82 -3.4598921445034034
413 103 3.643337909425054E-1
413 104 2.812127419932815
413 105 2.409108917207915
413 106 3.420524235786765
413 107 -3.7060041901945145E-1
413 108 -1.6614546311365903
413 201 -6.665445473630998
413 202 5.957191300446935E-1
413 203 -2.5093370532290877
413 394 -4.565709125276689E-1
413 395 2.2941989282579675E-1
413 396 2.6566917751373154E-2
413 397 -1.7882863672531724E-1
413 398 -2.934485060519227
413 411 2.6700577909091567
413 412 5.741744603177638
413 413 2.9272637935114737E1
413 417 -1.3960836427104333
413 418 -1.0066865394624696
413 419 -3.760566258190877E-1
413 423 1.5431126502754118
413 424 -3.9331584556191332
413 425 -1.4881286883294642
413 446 -3.784858026729272
413 447 -2.4415270009133656
413 448 -1.4101642781235634E1
414 233 -1.5502598858265442
414 234 -6.587480483377075E-1
414 235 5.949912691926713E-1
414 239 -4.40961134543061
414 240 1.3370841904209905
414 241 3.042392359086294
414 272 1.5774445377598745
414 273 -2.052400470301675
414 274 3.1323788553793197E-1
414 275 -1.0756254255467972E1
414 276 -2.5596466943754503
414 277 1.2321897281468985
414 295 -1.1225022882058666
414 296 -2.6348134406250745
414 297 -3.206812464211414
414 301 -6.110911605958075
414 302 2.0109703448424914
414 303 -4.163666290260242
414 345 -4.634174426935508
414 346 1.5509972642071888
414 387 2.8902352653299346
414 388 5.37569401222715E-1
414 389 -8.348928592910352E-1
414 390 -2.2995405861557436E-1
414 391 1.2849197465431175
414 392 -1.1149387345526347
414 393 2.097277233953393
414 406 -8.113843012988832
414 407 3.7611599230806574
414 408 1.6384414704197594
414 414 5.4171067967953135E1
414 415 1.223074022160127
414 416 1.3915829975400407
414 417 -7.3385914847856855
414 418 -4.739099061897488
414 419 -2.547377192918691
414 420 -1.514205494466137E1
414 421 9.649347762817853E-1
414 422 -1.6867793154824844
414 431 -2.431614074735586
414 432 -2.706831446021847E-1
414 433 -2.662049102495651
414 434 6.292936722465381E-1
414 435 -2.608938761018953
414 436 3.1374381188219718
414 437 2.57172994032213
414 438 2.307339982653259
414 439 3.315244866259394
415 233 -6.587480483377077E-1
415 234 -4.3010408050299125
415 235 2.129207423547971
415 239 1.3370841904209896
415 240 -1.7981885429490316
415 241 -9.998602660323159E-1
415 272 -2.0524004703016745
415 273 -4.572824673330977E-3
415 274 -7.895055373836833E-1
415 275 -2.559646694375451
415 276 -5.5965899045413545
415 277 1.2265924177289493
415 295 -2.6348134406250745
415 296 -2.3080360737347325
415 297 -2.7472233459917885
415 301 2.0109703448424914
415 302 4.79691239727823E-1
415 303 8.383378233778305E-1
415 345 2.097277233953394
415 346 -4.536634125490214
415 387 5.375694012227146E-1
415 388 -3.641567499518299
415 389 3.6021183043656237
415 390 1.2849197465431172
415 391 -1.5777186758978023
415 392 1.2136717583838341
415 393 -8.88432245721857
415 406 3.7611599230806574
415 407 -1.5217289543980602E1
415 408 -2.7627038721757105
415 414 1.223074022160127
415 415 5.1456132595836216E1
415 416 3.714005945030279
415 417 -4.739099061897489
415 418 -7.6118689444430565
415 419 -2.0188187113372855
415 420 9.649347762817857E-1
415 421 -5.687357516925209
415 422 5.280322571033966E-1
415 431 -2.7068314460218434E-1
415 432 -3.361028015306027E-1
415 433 -8.533087903169151E-1
415 434 -2.608938761018952
415 435 -8.570881747783287E-1
415 436 2.401172747178941
415 437 2.3073399826532577
415 438 5.885919929656788
415 439 -9.450840279889117E-1
416 233 2.3082226908646505E-1
416 234 1.2326516832881933
416 235 -2.3009869629607023
416 239 2.156561359201821
416 240 -6.390188114892911E-1
416 241 -4.280547860761595
416 272 3.1323788553793225E-1
416 273 -7.895055373836838E-1
416 274 1.861305926068587
416 275 3.988563948196545E-1
416 276 8.694495605854313E-1
416 277 -4.421467658780284
416 295 -3.2068124642114144
416 296 -2.7472233459917885
416 297 -2.022199093101888
416 301 -4.163666290260241
416 302 8.383378233778309E-1
416 303 1.3853708254434932E-1
416 345 1.2792489754479681
416 346 -7.686186683408339
416 387 -8.348928592910352E-1
416 388 3.6021183043656246
416 389 2.23731502027281
416 390 -5.687915777460489E-1
416 391 2.790502295634476E-1
416 392 5.731556780573004E-1
416 393 -3.4924394494938906
416 406 1.6384414704197583
416 407 -2.76270387217571
416 408 -7.740817263637285
416 414 1.3915829975400407
416 415 3.714005945030279
416 416 4.240379180797567E1
416 417 -1.8435243497345972
416 418 -1.1437209920368165
416 419 -4.64268791915301
416 420 -5.816976933960198E-1
416 421 4.3621853348726125E-1
416 422 -6.294588353326178
416 431 -2.662049102495652
416 432 -8.533087903169155E-1
416 433 -1.017601096763148E1
416 434 3.137438118821973
416 435 2.401172747178941
416 436 -6.508414358050925E-2
416 437 3.3152448662593934
416 438 -9.450840279889123E-1
416 439 2.4164713914225464
417 201 1.919260048565092
417 345 -4.214970156858038
417 346 2.355049409228644
417 387 -4.189463893786066
417 388 2.2565197404669304
417 389 -3.4134721347048926
417 393 9.470223583058488E-1
417 394 -2.445146919407174
417 395 1.5359029127715296
417 396 6.456588640301992E-1
417 411 -1.4003222691877562
417 412 -1.9316196209714347
417 413 -1.3960836427104333
417 414 -7.3385914847856855
417 415 -4.739099061897489
417 416 -1.8435243497345972
417 417 3.7533403848167296E1
417 418 1.2148154246972913
417 419 -1.381768065270966
417 420 -2.904807891598339
417 421 3.2566095583212453
417 422 4.9665117987514207E-1
417 423 -1.2596010631046443E1
417 424 3.0407528512346416E-1
417 434 -1.0018846317438945E-1
417 435 4.722216134036177E-1
417 436 9.699397480743905E-1
417 446 -2.3439021383233998
417 447 -3.316448210221004
417 448 1.648288942647422
418 201 2.758079536700538E-1
418 345 9.470223583058497E-1
418 346 7.273453178206965E-2
418 387 2.2565197404669295
418 388 2.3720059408153904E-1
418 389 1.6597896191125794
418 393 -3.775955947392323E-1
418 394 1.5359029127715296
418 395 -7.69598926590559
418 396 -2.7311895262338015
418 411 -1.9316196209714351
418 412 -2.4409462505617103
418 413 -1.0066865394624696
418 414 -4.739099061897488
418 415 -7.6118689444430565
418 416 -1.1437209920368165
418 417 1.2148154246972913
418 418 3.584373911854095E1
418 419 3.0743439899732192
418 420 3.2566095583212458
418 421 -8.420613298204168
418 422 -1.0583398225044098
418 423 3.040752851234627E-1
418 424 -2.904458411939794
418 434 4.7222161340361707E-1
418 435 -5.680255510349432E-1
418 436 -2.6019959091506983
418 446 -3.3164482102210022
418 447 -6.061442395793995
418 448 3.459256694850273
419 201 -4.87393647104243
419 345 1.2592277431139878
419 346 -9.034316563482241E-1
419 387 -3.413472134704892
419 388 1.659789619112579
419 389 -1.1413141841127605
419 393 3.2932275689601237E-1
419 394 3.3729323855588905E-1
419 395 -1.730175129099497
419 396 -3.450056091599682
419 411 -7.969131564709186E-1
419 412 -2.0493494207200086E-1
419 413 -3.760566258190877E-1
419 414 -2.547377192918691
419 415 -2.0188187113372855
419 416 -4.64268791915301
419 417 -1.381768065270966
419 418 3.0743439899732192
419 419 2.8155206168854384E1
419 420 9.933023597502841E-1
419 421 -2.1166796450088188
419 422 -3.23583462565786
419 423 2.9314785172234945
419 424 1.4989127583621756E-1
419 434 9.699397480743903E-1
419 435 -2.6019959091506992
419 436 -6.638769846159762
419 446 1.6482889426474223
419 447 3.4592566948502723
419 448 -2.893118748961567
420 167 -2.924801768962418
420 168 2.1411470096198957
420 169 -1.028262988622788
420 182 -3.4075012239259155
420 183 2.9125050694754355
420 184 3.526284269877844
420 185 1.5771582068482102
420 192 -1.4419967333924305E1
420 193 -1.7891855306787188
420 194 4.4787810301014847E-1
420 201 5.793622198037249E-1
420 390 -2.9384808954619457
420 391 -1.3430263332289454
420 392 1.165358447070062
420 406 9.07602141562584E-1
420 407 -3.440184243675596
420 408 -1.7125350016202345
420 409 -8.749999999987621E-1
420 410 3.7340296492144086E-16
420 414 -1.514205494466137E1
420 415 9.649347762817857E-1
420 416 -5.816976933960198E-1
420 417 -2.904807891598339
420 418 3.2566095583212458
420 419 9.933023597502841E-1
420 420 5.0704081032311805E1
420 421 3.1995582975903156
420 422 -1.0970403991712059
420 423 -8.80339250276379
420 424 -5.164779226813067
420 434 5.932313216062342
420 435 1.461846325594076
420 436 -1.489953539625424
420 437 -9.91549489811408
420 438 -1.938204902890072
420 439 1.1464302859532411
421 167 2.1411470096198952
421 168 -7.101272356172501
421 169 2.4896862671810895
421 182 -8.749999999987611E-1
421 183 3.5262842698778423
421 184 4.752050969443518
421 185 -1.8584925085951975
421 192 -1.7891855306787205
421 193 -5.766432138127989
421 194 2.919032418208269E-1
421 201 8.253028268679564E-1
421 390 -1.3430263332289454
421 391 -6.298018613648457
421 392 2.6269653957613297
421 406 -3.4401842436755956
421 407 3.4210789297074014
421 408 -2.0197646753570018
421 409 -8.518753059814806
421 410 -3.124999999995587
421 414 9.649347762817853E-1
421 415 -5.687357516925209
421 416 4.3621853348726125E-1
421 417 3.2566095583212453
421 418 -8.420613298204168
421 419 -2.1166796450088188
421 420 3.1995582975903156
421 421 4.598252128037004E1
421 422 -1.0316090072790627
421 423 -5.164779226813065
421 424 -8.843378449484735
421 434 1.4618463255940748
421 435 3.2794222921670917
421 436 3.175019467513229
421 437 -1.938204902890071
421 438 -6.799248039310182
421 439 3.0645010360397457E-1
422 167 -5.025435863400523E-1
422 168 1.5725697166969963
422 169 -3.476218329552017
422 182 1.8520360193984552E-15
422 183 1.5771582068482095
422 184 -1.8584925085951975
422 185 2.810620553176245
422 192 1.5153742834253678
422 193 2.0443735872018123E-1
422 194 -6.011415710528156
422 201 -5.041934557785291
422 390 5.945134465299851E-1
422 391 1.6560914563575653
422 392 -3.7779088268374568
422 406 -1.7125350016202336
422 407 -2.0197646753570018
422 408 2.360149038918818
422 409 -3.1249999999955858
422 410 -3.407501223925921
422 414 -1.6867793154824844
422 415 5.280322571033966E-1
422 416 -6.294588353326178
422 417 4.9665117987514207E-1
422 418 -1.0583398225044098
422 419 -3.23583462565786
422 420 -1.0970403991712059
422 421 -1.0316090072790627
422 422 3.582823971515054E1
422 423 1.158724439607453
422 424 1.6506056537359144
422 434 -1.4899535396254246
422 435 3.17501946751323
422 436 2.631924430922699
422 437 1.1464302859532405
422 438 3.06450103603973E-1
422 439 -1.2385532110555422E1
423 106 -1.4974232942293244
423 107 -2.919463424978654
423 108 1.1739747907507188
423 192 -1.2754882953063982E1
423 193 6.281418346271341
423 194 6.031033159278174E-1
423 195 -1.1082116695260547E1
423 196 -5.118397484803258E-1
423 197 -2.730606695553003
423 201 -1.8678130204557017
423 202 -1.6011650177220094
423 203 -1.4617416846676272
423 207 1.548841404921433
423 208 1.3526375720527435
423 209 3.697606063595689
423 411 -4.483758154317535
423 412 1.8406431991135914
423 413 1.5431126502754118
423 417 -1.2596010631046443E1
423 418 3.040752851234627E-1
423 419 2.9314785172234945
423 420 -8.80339250276379
423 421 -5.164779226813065
423 422 1.158724439607453
423 423 5.7096158246076286E1
423 424 -1.3763801936065592
423 425 -3.0773132770498863
423 434 -3.489545115958668
423 435 4.548035259118631E-1
423 436 -3.416314307252257
423 437 9.414672635922358
423 438 -7.047389350167598E-1
423 439 -1.7380866594111808
423 440 -9.338146733745306
423 441 -1.3307295190614088
423 442 1.6330524254255963
423 446 -9.370829294845915E-1
423 447 3.3755181372057788
423 448 -1.5264898354664114
424 106 -2.9194634249786535
424 107 -7.581193807015345
424 108 3.313022502210819
424 192 6.2814183462713435
424 193 -1.966479057331328E1
424 194 -1.0154314210754842
424 195 -5.118397484803272E-1
424 196 -2.0565384625918575
424 197 4.224608886491104E-1
424 201 2.726009253281047
424 202 -5.685518365469243
424 203 -3.2232367717610417
424 207 1.3526375720527428
424 208 5.192999837401413
424 209 -4.650013249571001E-1
424 411 1.8406431991135912
424 412 -1.0028446620596162E1
424 413 -3.9331584556191332
424 417 3.0407528512346416E-1
424 418 -2.904458411939794
424 419 1.4989127583621756E-1
424 420 -5.164779226813067
424 421 -8.843378449484735
424 422 1.6506056537359144
424 423 -1.3763801936065592
424 424 5.7793480911581064E1
424 425 -1.6011650177220091
424 434 4.548035259118639E-1
424 435 2.372795764149795
424 436 -4.5851508511931843E-1
424 437 -7.047389350167595E-1
424 438 1.1888262071719313
424 439 -2.475908480603875
424 440 -1.3307295190614084
424 441 -6.307133621971445
424 442 1.7656531372692533E-1
424 446 3.375518137205778
424 447 -3.4766444079223273
424 448 3.132696651695919
425 77 -3.7313451795255808
425 78 -1.9378295338629614
425 79 -5.431070854750628E-1
425 80 -8.429807743049715E-1
425 81 8.908925058899267E-1
425 82 3.010387858983066E-1
425 106 -4.041145776763976
425 107 1.0063004835064083E-16
425 108 -1.5866511513903319E-15
425 195 -2.779051818994382
425 196 1.866095682434366
425 197 1.152571273523227
425 201 -1.0526265319370385
425 202 1.7457077259056053E-1
425 203 1.6302522463200328
425 411 -5.421672731417514
425 412 6.07435590670118E-1
425 413 -1.4881286883294642
425 423 -3.0773132770498863
425 424 -1.6011650177220091
425 425 1.9893509558056305E1
426 50 4.564674264449753E-1
426 51 -3.8345283476827585E-1
426 52 2.4025802971491356E-1
426 53 -3.8906154587537556E-1
426 83 -1.1089766227396458
426 111 -3.0511301603612013
426 365 -2.752777647471478
426 426 2.3085374689264803E1
426 427 -1.6075238546930617
426 603 -1.1033843736630555E-1
426 604 -6.699248340350653E-2
426 605 -2.7110743557289263E-1
426 625 -3.9209330038167436
426 626 -1.2792284986167357E-1
426 627 -5.038542433795651
426 702 4.8512565066431246E-1
426 703 2.2664439738245445E-1
426 759 3.3231901239834882
426 760 -9.089237052053706
426 868 -4.485886207349833E-1
426 869 9.734594138363657E-1
426 870 1.1823264386574444
426 871 7.879177768249503E-1
426 872 -2.126359258063314
426 873 -5.178618305427103E-1
426 874 7.478912825753614E-1
426 875 -1.831545106252259
426 883 6.595888754501692E-1
426 884 3.116815255726417
426 885 -2.4427081831528703
427 49 -1.1054206370336644E-1
427 50 1.5121844378095861
427 51 -2.810292581228391
427 52 7.340196276330055E-1
427 83 1.4947901706800123E-2
427 103 1.8151258378310375
427 104 7.924243466804245E-1
427 105 -2.498381594071404
427 111 1.181908241356673
427 358 -1.9172814204809607
427 359 -1.191554677322127
427 360 4.0162676819475873E-1
427 365 5.092192825260196E-1
427 366 -3.110671031703412
427 381 -1.7536758516413884
427 382 -4.034596429510735
427 383 -2.2247494466401156
427 397 -8.711241320316452
427 398 5.770957854499867E-1
427 426 -1.6075238546930617
427 427 2.968289626075843E1
427 492 1.7587625484531395
427 493 2.020395933218614E-1
427 603 1.3991851121857857
427 604 -2.724815024329399
427 605 -8.464528961858749E-1
427 625 1.175578660371338
427 626 -3.0814744298815437
427 627 3.6212994209316864
427 759 -1.259617257014896
427 760 1.1318073135331375
427 868 -2.6346679055170767
427 869 -5.992583354503465
428 67 -3.988231705236264
428 68 2.4252981824765447
428 69 -6.495790320687651E-1
428 100 -4.3316930737406745
428 101 -2.939539803488514
428 102 1.7811679202520525
428 103 3.902628620266869
428 104 -2.8922526803016885E-1
428 105 -3.643337909425062E-1
428 106 -1.4775276843297487
428 107 7.252877052227911E-1
428 108 -3.420524235786762
428 357 -5.216807987047758E-1
428 401 -3.538879071079835
428 402 7.78520746296433E-1
428 428 2.850615240304529E1
428 429 -7.807382940967399E-1
428 430 -2.6700577909091523
428 434 -1.4003222691877488
428 435 -1.9316196209714325
428 436 7.96913156470918E-1
428 440 -4.4837581543175435
428 441 1.8406431991135923
428 442 -1.1277814692457315
428 443 -5.421672731417511
428 444 6.074355906701168E-1
428 445 2.3910180142054527
428 446 -7.766696334002839
428 447 -4.360624371926221E-1
428 448 3.78485802672927
429 67 2.4252981824765443
429 68 -6.805627550560873
429 69 1.1251097970813646
429 100 -2.939539803488515
429 101 -4.93091681123859
429 102 2.078386142895648
429 103 -2.892252680301682E-1
429 104 2.017794339274912E-1
429 105 -2.812127419932815
429 106 7.252877052227908E-1
429 107 1.1518087950913414
429 108 3.706004190194512E-1
429 357 -2.361456883045493E-2
429 401 7.785207462964323E-1
429 402 1.2153095361970667E-1
429 428 -7.807382940967399E-1
429 429 3.0743145400421128E1
429 430 -5.741744603177633
429 434 -1.9316196209714311
429 435 -2.440946250561703
429 436 2.0493494207199958E-1
429 440 1.8406431991135919
429 441 -1.0028446620596165E1
429 442 3.0971769829693496
429 443 6.074355906701189E-1
429 444 -1.3171437230177905
429 445 -7.402486930102747E-1
429 446 -4.360624371926223E-1
429 447 -6.695183627084552
429 448 2.441527000913365
430 67 -3.4586019243228877E-1
430 68 1.7882863672531724E-1
430 69 -2.9344850605192256
430 100 1.2182473900492887
430 101 1.4482099942412057
430 102 -3.4598921445034043
430 103 -3.64333790942506E-1
430 104 -2.812127419932815
430 105 2.4091089172079165
430 106 -3.4205242357867633
430 107 3.706004190194509E-1
430 108 -1.6614546311365863
430 357 2.6566917751372265E-2
430 401 4.5657091252766896E-1
430 402 -2.2941989282579642E-1
430 428 -2.6700577909091523
430 429 -5.741744603177633
430 430 2.9272637935114716E1
430 434 1.3960836427104308
430 435 1.0066865394624673
430 436 -3.7605662581908333E-1
430 440 -1.5431126502754111
430 441 3.9331584556191315
430 442 -6.6654454736309985
430 443 1.4881286883294624
430 444 -5.957191300446931E-1
430 445 -2.5093370532290864
430 446 3.78485802672927
430 447 2.4415270009133647
430 448 -1.4101642781235629E1
431 260 -4.41021553155354
431 261 1.3375304395642196
431 262 -3.042392359086289
431 266 -4.611169027454423E-1
431 267 -1.021971735345357
431 268 -7.406325688124454E-1
431 289 -7.448719845866831
431 290 -2.527324544894082
431 291 -1.2996774563318103
431 295 -7.682076169723038
431 296 -4.704836624796755
431 297 3.046981953198736
431 301 -6.1247469410070785
431 302 1.5118513164141527
431 303 4.158187077029995
431 356 -1.6523157771256318
431 387 6.860992674871122
431 388 -1.1268049953272001
431 389 8.955829554745546E-1
431 399 -4.866880632432249
431 400 2.048334966150139
431 403 -1.540645736267709
431 404 2.141532910918508
431 405 1.1149387345526351
431 406 1.7873598538486886
431 407 2.9983245317795264
431 408 -1.6384414704197545
431 414 -2.431614074735586
431 415 -2.7068314460218434E-1
431 416 -2.662049102495652
431 431 4.804849828191681E1
431 432 3.229210458914324
431 433 4.038344490695861
431 434 -1.097811190035866E1
431 435 -4.072985520728866
431 436 -5.900609259032864E-1
431 437 -1.075272307594648E1
431 438 4.578219419535738E-1
431 439 -1.6284655507769097
432 260 1.33753043956422
432 261 -1.7979211719953274
432 262 9.998602660323171E-1
432 266 -1.0219717353453575
432 267 -2.6054344392426505
432 268 -1.7621234345723071
432 289 -2.5273245448940824
432 290 -3.3955834116312054
432 291 -1.056491872528527
432 295 -4.704836624796755
432 296 -9.719168035582927
432 297 3.150070764242829
432 301 1.5118513164141532
432 302 3.289007471606258E-1
432 303 -7.8592247005708E-1
432 356 4.512753112081964
432 387 -1.1268049953272004
432 388 -2.3532020723798142E-1
432 389 -3.5878135049863364
432 399 2.04833496615014
432 400 -8.638860617061605
432 403 2.141532910918508
432 404 -4.619011234437348
432 405 -1.2136717583838348
432 406 2.9983245317795273
432 407 -7.860485280857027E-2
432 408 2.762703872175706
432 414 -2.706831446021847E-1
432 415 -3.361028015306027E-1
432 416 -8.533087903169155E-1
432 431 3.229210458914324
432 432 4.039640825585067E1
432 433 -2.200753918731676
432 434 -4.072985520728865
432 435 -7.5675391558403025
432 436 -3.8235403584165817E-1
432 437 4.5782194195357295E-1
432 438 -1.7317630756427838
432 439 4.170517708855185E-1
433 260 -2.1565613592018185
433 261 6.390188114892914E-1
433 262 -4.279807703095194
433 266 -3.76463568706238E-1
433 267 -8.655676943125296E-1
433 268 -8.330866152237195E-1
433 289 -4.6634412300456596E-1
433 290 -6.993490153850087E-1
433 291 -2.1671864775079204
433 295 3.046981953198736
433 296 3.1500707642428294
433 297 -5.594613662795315
433 301 4.158187077029995
433 302 -7.859224700570804E-1
433 303 2.5001249970113992E-2
433 356 -8.030619657764472
433 387 8.955829554745546E-1
433 388 -3.5878135049863364
433 389 4.5876500237661055
433 399 -1.3805674883664119
433 400 3.4685584360856403
433 403 5.687915777460492E-1
433 404 -2.7905022956344844E-1
433 405 -1.1061218303116933
433 406 -1.638441470419755
433 407 2.762703872175705
433 408 -1.5665191954356428E-1
433 414 -2.662049102495651
433 415 -8.533087903169151E-1
433 416 -1.017601096763148E1
433 431 4.038344490695861
433 432 -2.200753918731676
433 433 3.721436195320419E1
433 434 -1.2939137690873803
433 435 -1.2574517551421276
433 436 -5.709921759747678
433 437 -2.7335471728633736
433 438 5.088654945016546E-1
433 439 -3.7729926333193737
434 201 -3.4163143072522573
434 356 -2.3550494092286427
434 357 -6.528036806434185E-1
434 387 -8.848130683447998
434 388 4.037952500662065
434 389 3.4168912000566154
434 399 -3.7610438689576373
434 400 8.548074532868563E-1
434 401 -2.3678392017031236
434 402 1.3936272431094412
434 414 6.292936722465381E-1
434 415 -2.608938761018952
434 416 3.137438118821973
434 417 -1.0018846317438945E-1
434 418 4.7222161340361707E-1
434 419 9.699397480743903E-1
434 420 5.932313216062342
434 421 1.4618463255940748
434 422 -1.4899535396254246
434 423 -3.489545115958668
434 424 4.548035259118639E-1
434 428 -1.4003222691877488
434 429 -1.9316196209714311
434 430 1.3960836427104308
434 431 -1.097811190035866E1
434 432 -4.072985520728865
434 433 -1.2939137690873803
434 434 5.439663976069268E1
434 435 -1.99729692221099E-1
434 436 -5.58434668817491E-1
434 437 -1.1741928999259041E1
434 438 5.051372791048421
434 439 9.933023597502872E-1
434 440 -1.3774533023376776E1
434 441 -1.5221962075789752
434 442 1.4970542586871665
434 446 -4.496603123577528
434 447 -3.3911616504970175
434 448 -1.6442399534462497
435 201 -4.5851508511931854E-1
435 356 -7.273453178207034E-2
435 357 2.72850682369612
435 387 4.0379525006620645
435 388 -3.785440761355719
435 389 -1.658505844343805
435 399 8.54807453286856E-1
435 400 -2.973279936317391E-1
435 401 1.3936272431094423
435 402 -7.432266448258705
435 414 -2.608938761018953
435 415 -8.570881747783287E-1
435 416 2.401172747178941
435 417 4.722216134036177E-1
435 418 -5.680255510349432E-1
435 419 -2.6019959091506992
435 420 1.461846325594076
435 421 3.2794222921670917
435 422 3.17501946751323
435 423 4.548035259118631E-1
435 424 2.372795764149795
435 428 -1.9316196209714325
435 429 -2.440946250561703
435 430 1.0066865394624673
435 431 -4.072985520728866
435 432 -7.5675391558403025
435 433 -1.2574517551421276
435 434 -1.99729692221099E-1
435 435 5.428230372213492E1
435 436 2.129526460448786
435 437 5.051372791048423
435 438 -2.0120648888575456E1
435 439 -2.116679645008827
435 440 -1.5221962075789761
435 441 -5.0545842242758185
435 442 1.8270713144926726E-1
435 446 -3.3911616504970166
435 447 -1.181065433013909E1
435 448 -3.457736399201966
436 201 -3.19071243373963E-1
436 356 -7.067118638035859E-1
436 357 -3.400621412440025
436 387 3.416891200056614
436 388 -1.658505844343805
436 389 -3.62005407992577
436 399 -1.2592277431139867
436 400 -3.2932275689601254E-1
436 401 -3.444380551691089E-1
436 402 1.727492426561816
436 414 3.1374381188219718
436 415 2.401172747178941
436 416 -6.508414358050925E-2
436 417 9.699397480743905E-1
436 418 -2.6019959091506983
436 419 -6.638769846159762
436 420 -1.489953539625424
436 421 3.175019467513229
436 422 2.631924430922699
436 423 -3.416314307252257
436 424 -4.5851508511931843E-1
436 428 7.96913156470918E-1
436 429 2.0493494207199958E-1
436 430 -3.7605662581908333E-1
436 431 -5.900609259032864E-1
436 432 -3.8235403584165817E-1
436 433 -5.709921759747678
436 434 -5.58434668817491E-1
436 435 2.129526460448786
436 436 3.828653555721614E1
436 437 4.966511798751449E-1
436 438 -1.058339822504417
436 439 -9.103593682238431
436 440 4.848357900287635E-1
436 441 3.086238092831026E-1
436 442 -5.82497881523282
436 446 -1.6442399534462502
436 447 -3.457736399201965
436 448 -5.153596515817219
437 173 -2.7925064063085125
437 174 1.2846882057818596
437 175 1.028262988622787
437 182 -3.585933415140344
437 183 -1.5997636844765084
437 184 3.4275707504895765
437 185 -1.5771582068482082
437 192 -3.197048097183666
437 193 8.783756567198417E-1
437 194 -3.2024885412456587
437 201 -1.7380866594111808
437 204 -1.1942788900606931E1
437 205 -3.602816648645088E-2
437 206 2.7546104382355097
437 403 -3.1019806362456244
437 404 -2.2383772220621583
437 405 -1.1653584470700644
437 406 -1.1595702714565809E-2
437 407 -3.624977332642575
437 408 1.7125350016202319
437 409 8.749999999987665E-1
437 410 -2.717099106485312E-16
437 414 2.57172994032213
437 415 2.3073399826532577
437 416 3.3152448662593934
437 420 -9.91549489811408
437 421 -1.938204902890071
437 422 1.1464302859532405
437 423 9.414672635922358
437 424 -7.047389350167595E-1
437 431 -1.075272307594648E1
437 432 4.5782194195357295E-1
437 433 -2.7335471728633736
437 434 -1.1741928999259041E1
437 435 5.051372791048423
437 436 4.966511798751449E-1
437 437 5.530662054094082E1
437 438 -6.418251857098329E-1
437 439 -1.1958201727352715
437 440 -8.651259301189555
437 441 -5.098017583837449
437 442 1.1587244396074499
438 173 1.284688205781861
438 174 -6.347403954516233
438 175 -2.4896862671810864
438 182 8.749999999987685E-1
438 183 3.4275707504895747
438 184 -3.618245261574609
438 185 1.858492508595195
438 192 8.78375656719842E-1
438 193 3.1155610275695835
438 194 -4.0724520784176776E-1
438 201 -2.4759084806038736
438 204 -3.6028166486450686E-2
438 205 -2.7214889237892645
438 206 1.1534196602094246E-1
438 403 -2.2383772220621587
438 404 -6.952851506821755
438 405 -2.6269653957613306
438 406 -3.624977332642575
438 407 -1.7249059288894442
438 408 2.019764675357001
438 409 -8.964833537850879
438 410 3.124999999995583
438 414 2.307339982653259
438 415 5.885919929656788
438 416 -9.450840279889123E-1
438 420 -1.938204902890072
438 421 -6.799248039310182
438 422 3.06450103603973E-1
438 423 -7.047389350167598E-1
438 424 1.1888262071719313
438 431 4.578219419535738E-1
438 432 -1.7317630756427838
438 433 5.088654945016546E-1
438 434 5.051372791048421
438 435 -2.0120648888575456E1
438 436 -1.058339822504417
438 437 -6.418251857098329E-1
438 438 5.751149695574419E1
438 439 4.187088000711281E-1
438 440 -5.098017583837448
438 441 -8.720415003171894
438 442 1.6506056537359115
439 173 5.025435863400513E-1
439 174 -1.5725697166969936
439 175 -3.6307791641787848
439 182 -1.4681225848744534E-15
439 183 -1.5771582068482077
439 184 1.8584925085951958
439 185 -4.562807002140686E-1
439 192 -3.2024885412456605
439 193 -4.0724520784176743E-1
439 194 -2.3282019889737885E-2
439 201 3.0295710980269344
439 204 1.6871142578202902
439 205 2.028078491215879E-1
439 206 -4.596248671155895
439 403 -5.945134465299862E-1
439 404 -1.6560914563575666
439 405 -3.556154563984268
439 406 1.7125350016202312
439 407 2.019764675357001
439 408 1.7788648781396355E-1
439 409 3.124999999995582
439 410 -3.5859334151403455
439 414 3.315244866259394
439 415 -9.450840279889117E-1
439 416 2.4164713914225464
439 420 1.1464302859532411
439 421 3.0645010360397457E-1
439 422 -1.2385532110555422E1
439 423 -1.7380866594111808
439 424 -2.475908480603875
439 431 -1.6284655507769097
439 432 4.170517708855185E-1
439 433 -3.7729926333193737
439 434 9.933023597502872E-1
439 435 -2.116679645008827
439 436 -9.103593682238431
439 437 -1.1958201727352715
439 438 4.187088000711281E-1
439 439 4.0450203498944724E1
439 440 5.793622198037223E-1
439 441 8.253028268679545E-1
439 442 -4.963335515531839
440 106 1.0302272862271618
440 107 -3.3642007177870203
440 108 -1.1739747907507174
440 192 5.021563087296087
440 193 1.2128012831812311
440 194 -1.8093099477834462
440 201 1.633052425425597
440 204 -3.8666599328839344
440 205 3.7471098147262842
440 206 1.2062066318556308
440 207 -1.679389042257669E1
440 208 1.1380237701690427E-1
440 209 -9.669993680426849E-1
440 423 -9.338146733745306
440 424 -1.3307295190614084
440 428 -4.4837581543175435
440 429 1.8406431991135919
440 430 -1.5431126502754111
440 434 -1.3774533023376776E1
440 435 -1.5221962075789761
440 436 4.848357900287635E-1
440 437 -8.651259301189555
440 438 -5.098017583837448
440 439 5.793622198037223E-1
440 440 5.249369230637944E1
440 441 2.4018951824014754
440 442 -1.3982918303954903
440 443 -3.07731327704988
440 444 -1.6011650177220083
440 445 1.4617416846676234
440 446 1.440078165236998
440 447 3.600057189547375
440 448 1.5264898354664123
441 106 -3.36420071778702
441 107 -1.451406858817049
441 108 -3.3130225022108197
441 192 1.212801283181232
441 193 2.743271369036594
441 194 3.0462942632264456
441 201 1.7656531372692524E-1
441 204 3.7471098147262825
441 205 -8.460759602138333
441 206 -2.030862842150965
441 207 1.1380237701690477E-1
441 208 -5.450072726898135
441 209 4.2540436307989225E-2
441 423 -1.3307295190614088
441 424 -6.307133621971445
441 428 1.8406431991135923
441 429 -1.0028446620596165E1
441 430 3.9331584556191315
441 434 -1.5221962075789752
441 435 -5.0545842242758185
441 436 3.086238092831026E-1
441 437 -5.098017583837449
441 438 -8.720415003171894
441 439 8.253028268679545E-1
441 440 2.4018951824014754
441 441 4.5998796131049005E1
441 442 -3.079139880734885
441 443 -1.6011650177220083
441 444 -5.68551836546924
441 445 3.2232367717610404
441 446 3.600057189547374
441 447 2.4162695232524722
441 448 -3.1326966516959205
442 106 -1.173974790750717
442 107 -3.3130225022108184
442 108 1.881547571597429
442 192 -1.8093099477834444
442 193 3.0462942632264447
442 194 2.218524130380767
442 201 -1.2319625187728896E1
442 204 6.031033159278154E-1
442 205 -1.0154314210754825
442 206 -3.5221198671492195
442 207 -1.9616927688760923
442 208 5.321908208981466E-2
442 209 -6.380930118010512
442 423 1.6330524254255963
442 424 1.7656531372692533E-1
442 428 -1.1277814692457315
442 429 3.0971769829693496
442 430 -6.6654454736309985
442 434 1.4970542586871665
442 435 1.8270713144926726E-1
442 436 -5.82497881523282
442 437 1.1587244396074499
442 438 1.6506056537359115
442 439 -4.963335515531839
442 440 -1.3982918303954903
442 441 -3.079139880734885
442 442 3.791764277633766E1
442 443 1.0526265319370354
442 444 2.3337220285193925
442 445 -5.254779440544692
442 446 1.5264898354664116
442 447 -3.1326966516959205
442 448 2.9134999395131276
443 97 -3.7313451795255794
443 98 -1.937829533862961
443 99 5.431070854750619E-1
443 100 -8.429807743049682E-1
443 101 8.908925058899247E-1
443 102 -3.0103878589830624E-1
443 106 -4.041145776763976
443 107 1.8517435561556243E-16
443 108 6.039713127933296E-16
443 207 -2.779051818994383
443 208 1.8660956824343649
443 209 -1.1525712735232265
443 428 -5.421672731417511
443 429 6.074355906701189E-1
443 430 1.4881286883294624
443 440 -3.07731327704988
443 441 -1.6011650177220083
443 442 1.0526265319370354
443 443 1.9893509558056298E1
443 444 1.745707725905603E-1
443 445 -1.6302522463200273
444 97 -1.9378295338629616
444 98 -1.8543684186500748
444 99 1.3272600632918385E-1
444 100 8.908925058899272E-1
444 101 -4.633141440722819
444 102 2.1676603194854516E-1
444 106 9.331814615110079E-17
444 107 -4.041145776763975
444 108 7.701586496529352E-16
444 207 1.866095682434365
444 208 -2.5802848778840355
444 209 6.139693814669455E-1
444 428 6.074355906701168E-1
444 429 -1.3171437230177905
444 430 -5.957191300446931E-1
444 440 -1.6011650177220083
444 441 -5.68551836546924
444 442 2.3337220285193925
444 443 1.745707725905603E-1
444 444 2.0111602602507936E1
444 445 -2.701464318219375
445 97 -2.7802794808174736E-1
445 98 -3.9485530702666677E-1
445 99 -7.627151347994751E-1
445 100 -1.0341823803918127E-1
445 101 -6.682457970195317E-1
445 102 -7.803183218848982E-1
445 106 5.418088108115653E-16
445 107 2.3927469232326516E-16
445 108 -1.0102864441909938E1
445 207 -1.8410612664321206
445 208 1.2815773435148075
445 209 -1.7484042675913534
445 428 2.3910180142054527
445 429 -7.402486930102747E-1
445 430 -2.5093370532290864
445 440 1.4617416846676234
445 441 3.2232367717610404
445 442 -5.254779440544692
445 443 -1.6302522463200273
445 444 -2.701464318219375
445 445 2.1158418659959445E1
446 49 -1.141838135458408
446 67 -1.1251986162786962
446 68 -1.4545867332705968
446 69 2.1550243341953057
446 103 -1.1060169818925875E1
446 104 -4.816920064991477
446 105 -3.403690880626753E-4
446 106 -7.182364782474913
446 107 -1.3887005310014806
446 108 -8.326672684688674E-16
446 201 -1.52648983546641
446 357 -3.3426497316334514
446 358 1.4027147510335511
446 359 1.9609052274323433
446 360 2.3652168438243013
446 368 1.7762102682129914
446 369 1.8576582714841654
446 370 -2.391725343396961
446 381 -2.878085233382597
446 382 2.000387335774166
446 383 1.1771343722708116E-2
446 387 -2.056098873174777E1
446 388 -2.731756439767729
446 389 -8.259335867023182E-2
446 394 -3.2444093381708328
446 395 -8.928660237082355E-2
446 396 3.5384580392787868
446 397 -1.458416705217028
446 398 -2.157077018714404
446 401 -2.8045778912553785
446 402 -1.380009768601441E-3
446 411 -7.766696334002839
446 412 -4.360624371926234E-1
446 413 -3.784858026729272
446 417 -2.3439021383233998
446 418 -3.3164482102210022
446 419 1.6482889426474223
446 423 -9.370829294845915E-1
446 424 3.375518137205778
446 428 -7.766696334002839
446 429 -4.360624371926223E-1
446 430 3.78485802672927
446 434 -4.496603123577528
446 435 -3.3911616504970166
446 436 -1.6442399534462502
446 440 1.440078165236998
446 441 3.600057189547374
446 442 1.5264898354664116
446 446 6.868961022260213E1
446 447 6.726255660047173
446 448 -1.0013372871916193E-1
447 49 -1.4584167052170278
447 67 -1.454586733270598
447 68 -3.0948300818003185
447 69 3.1227833432966943
447 103 -4.816920064991477
447 104 -1.1452283364862202E1
447 105 2.733411571994304E-4
447 106 -1.3887005310014806
447 107 1.5139597135323253
447 108 9.43689570931383E-16
447 201 3.1326966516959183
447 357 -9.172796373168827E-1
447 358 1.9609052274323422
447 359 2.1286491837442556
447 360 -1.9749465176074377
447 368 1.8576582714841665
447 369 2.1880856193459484
447 370 1.966692511586487
447 381 2.000387335774165
447 382 -9.407015153649013
447 383 1.0529107987787362E-2
447 387 -2.731756439767728
447 388 -6.606366954871994
447 389 -2.3353807873430596E-2
447 394 -8.928660237082284E-2
447 395 -2.7837793643151327
447 396 9.70431852651475E-1
447 397 -3.107712469674971
447 398 -3.123808872673324
447 401 -1.3800097686012397E-3
447 402 -2.6546805238250077
447 411 -4.360624371926228E-1
447 412 -6.695183627084554
447 413 -2.4415270009133656
447 417 -3.316448210221004
447 418 -6.061442395793995
447 419 3.4592566948502723
447 423 3.3755181372057788
447 424 -3.4766444079223273
447 428 -4.360624371926221E-1
447 429 -6.695183627084552
447 430 2.4415270009133647
447 434 -3.3911616504970175
447 435 -1.181065433013909E1
447 436 -3.457736399201965
447 440 3.600057189547375
447 441 2.4162695232524722
447 442 -3.1326966516959205
447 446 6.726255660047173
447 447 6.559881226114815E1
447 448 -3.2841616856873763E-2
448 49 -2.1570770187144053
448 67 2.1550243341953066
448 68 3.122783343296695
448 69 -5.052000179804876
448 103 -3.4036908806225896E-4
448 104 2.7334115719984675E-4
448 105 -6.033400880788497
448 106 -5.828670879282072E-16
448 107 8.881784197001252E-16
448 108 1.6767521852757041
448 201 5.506213606855913E-1
448 357 -7.855711291774116
448 358 2.3652168438243018
448 359 -1.9749465176074383
448 360 1.614950246206747
448 368 -2.391725343396961
448 369 1.9666925115864862
448 370 1.7422244770241497
448 381 1.177134372270829E-2
448 382 1.0529107987788777E-2
448 383 -2.200294234907015
448 387 -8.25933586702307E-2
448 388 -2.335380787343044E-2
448 389 -5.410098513821242
448 394 3.538458039278788
448 395 9.70431852651475E-1
448 396 -7.8952310296381
448 397 -3.1238088726733255
448 398 -5.061327005411319
448 401 -3.342649731633453
448 402 -9.172796373168831E-1
448 411 -3.784858026729272
448 412 -2.441527000913368
448 413 -1.4101642781235634E1
448 417 1.648288942647422
448 418 3.459256694850273
448 419 -2.893118748961567
448 423 -1.5264898354664114
448 424 3.132696651695919
448 428 3.78485802672927
448 429 2.441527000913365
448 430 -1.4101642781235629E1
448 434 -1.6442399534462497
448 435 -3.457736399201966
448 436 -5.153596515817219
448 440 1.5264898354664123
448 441 -3.1326966516959205
448 442 2.9134999395131276
448 446 -1.0013372871916193E-1
448 447 -3.2841616856873763E-2
448 448 6.726001575468989E1
449 304 5.249980292642613E-1
449 305 1.7857452461556722E-1
449 306 -4.6768830341454426E-1
449 449 9.9734625165784
449 450 -1.3018661616901575E-1
449 451 -4.12359826208197
449 452 3.56829714448005E-1
449 453 -1.1677012414837182E-1
449 454 -4.060928669969287E-1
449 467 -1.6465008261749343
449 468 5.245545389375937E-1
449 469 7.998592530882589E-1
449 470 -4.751816145330932
449 471 -4.196436311500752E-1
449 472 2.4553506927538944
449 482 -8.069237296328997E-1
449 483 -9.536278859830042E-1
449 484 1.6917490317226663E-1
449 487 -3.6500495591519004
449 488 9.170991938973057E-1
449 489 1.5729945834790233
450 304 -7.142547538188776E-2
450 305 -3.6350617450592704E-1
450 306 2.73172135510849E-1
450 449 -1.3018661616901575E-1
450 450 9.384327528860915
450 451 1.3106072380676848E-1
450 452 1.957298758484469E-1
450 453 -7.343384844130076E-1
450 454 -6.567707093209235E-2
450 467 2.120545389407745E-1
450 468 -2.2524621797054314
450 469 -1.792692139295825
450 470 -1.696436311526198E-1
450 471 -4.267047062506534
450 472 1.4341537114366605
450 482 -9.536278859830044E-1
450 483 9.011911832067532E-2
450 484 5.216721746538612E-1
450 487 9.170991938973059E-1
450 488 -1.8570927460506907
450 489 -5.016895351802214E-1
451 304 -4.2516883943324224E-1
451 305 -2.7317213551255864E-1
451 306 1.3005023766681798
451 449 -4.12359826208197
451 450 1.3106072380676848E-1
451 451 1.5850457241057883E1
451 452 -5.055642167468047E-1
451 453 4.5973949658941193E-1
451 454 7.96875512358199E-1
451 467 -1.8593127856055713E-2
451 468 -1.792692139295826
451 469 -5.269063047574328
451 470 1.5624935498970953
451 471 1.4341537114366611
451 472 -1.0957291577617738E1
451 482 1.0195125820477615
451 483 1.0680164456772687
451 484 1.2777748508831586
451 487 2.4909183141732156
451 488 -1.0271061027017252
451 489 -2.99925535577536
452 449 3.56829714448005E-1
452 450 1.957298758484469E-1
452 451 -5.055642167468047E-1
452 452 1.0127487109290826E1
452 453 -1.1132152541593947E-1
452 454 -4.160708699530456
452 470 -4.372884512782142E-1
452 471 6.469751701989861E-1
452 472 6.29554989802634E-1
452 473 -4.536180911411186
452 474 -5.391459751635406E-1
452 475 2.649974016472764
452 482 -4.091530689368895
452 483 1.10319047056405
452 484 1.3495983551693975
452 521 2.114584537795684E-1
452 522 -1.516519616899704E-1
452 523 -3.7676561353988347E-1
452 551 -1.6307752254601051
452 552 -1.1437760543420328
452 553 4.1391116837234965E-1
453 449 -1.1677012414837182E-1
453 450 -7.343384844130076E-1
453 451 4.5973949658941193E-1
453 452 -1.1132152541593947E-1
453 453 9.186535417375593
453 454 -3.287231254925433E-1
453 470 2.7197517020121603E-1
453 471 -1.1660311696882095
453 472 -1.655062187694881
453 473 -2.2664597516672108E-1
453 474 -3.928895312738759
453 475 1.3792184897398994
453 482 1.1031904705640498
453 483 -1.8268576471711067
453 484 -4.9291902476218735E-1
453 521 2.233480383077996E-1
453 522 -1.075347074956369
453 523 1.2669319054254247E-1
453 551 -1.1437760543420332
453 552 -4.5506572840814163E-1
453 553 5.110531610777579E-1
454 449 -4.060928669969287E-1
454 450 -6.567707093209235E-2
454 451 7.96875512358199E-1
454 452 -4.160708699530456
454 453 -3.287231254925433E-1
454 454 1.383665934336516E1
454 470 -1.144926292509928E-1
454 471 -1.655062187694882
454 472 -2.750087061275285
454 473 1.6827121116951267
454 474 1.3792184897398996
454 475 -9.959730667634016
454 482 2.2614227140718883
454 483 -9.996917869351432E-1
454 484 -2.4595724579640263
454 521 -5.44542353388747E-1
454 522 6.334659527154989E-1
454 523 3.3492912605048825E-1
454 551 1.281701723400111
454 552 1.0364697285992621
454 553 2.0092620509947745E-1
455 455 2.1953505108439803E1
455 456 6.94051073036982E-1
455 457 -3.909159835873635
455 458 5.005681481489229E-1
455 459 5.947726725084563E-1
455 460 1.0651870120173249E-1
455 461 -1.1897556288381113E1
455 462 -5.289096260060186E-2
455 463 4.805571425231603
455 473 -2.485580623605696
455 474 8.165453373554614E-2
455 475 -8.059652365567823E-1
455 494 -2.07190405956638
455 495 1.0378159233310824E-1
455 496 -1.9696505396666947E-1
455 505 -4.348181962057433
455 506 2.7755575615628914E-16
455 507 -5.551115123125783E-16
455 533 -4.0328501845335074E-1
455 534 -5.817137758833266E-1
455 535 -1.4121278029712925
455 536 -1.2475653045247574
455 537 -8.396551331301643E-1
455 538 1.4121278029350477
456 455 6.94051073036982E-1
456 456 2.1215853701772296E1
456 457 -9.375815694563308E-1
456 458 3.239393391985166E-1
456 459 -3.79796085195508E-1
456 460 -1.208593260638625
456 461 -3.205762926844698E-2
456 462 -1.066913977852544E1
456 463 3.10274950802424E-1
456 473 1.4415453371243533E-1
456 474 -2.070536449976459
456 475 -3.989249365602312E-1
456 494 -2.7121840766754596E-1
456 495 -3.6117208044776103
456 496 2.2348248159174555
456 505 5.551115123125783E-16
456 506 -1.7392727848229734
456 533 -2.2754710921482763E-1
456 534 -1.5165949926359272
456 535 -1.861649704987026
456 536 -6.313217997971138E-1
456 537 -1.2287928061383826
456 538 1.8616497049223333
457 455 -3.909159835873635
457 456 -9.375815694563308E-1
457 457 4.024304632872286E1
457 458 -1.7514796549712655E-1
457 459 -1.208593260638625
457 460 1.6562187151778107
457 461 3.763904758571477
457 462 3.102749508024252E-1
457 463 -2.639387428598013E1
457 473 -3.4652365280060105E-3
457 474 -3.989249365602313E-1
457 475 -7.887428548854693
457 494 3.2386827933822826E-1
457 495 2.234824815917455
457 496 -4.6226213892521235
457 505 -1.1102230246251565E-15
457 507 -1.7392727848229734
457 533 -8.912944696160605E-1
457 534 -1.8616497049870255
457 535 -5.485371462335664E-1
457 536 8.912944696051308E-1
457 537 1.8616497049223324
457 538 -7.075308887571927E-1
458 347 -1.5347625007981042E-1
458 348 -8.930765508081198E-1
458 349 2.7359359533591965E-1
458 375 -1.4716743141744497
458 376 1.6832139237664339
458 377 3.626156124873166E-1
458 455 5.005681481489229E-1
458 456 3.239393391985166E-1
458 457 -1.7514796549712655E-1
458 458 5.245998394264831E1
458 459 -3.2397303127380113
458 460 1.857263040481096E1
458 461 -1.6855752951085874
458 462 2.9824500433553175E-1
458 463 1.8055141875264413E-1
458 464 -3.479682764509782E1
458 465 3.0369734135411586E-1
458 466 -1.6081301592198514E1
458 470 1.0450198821957912
458 471 -9.855626369413131E-1
458 472 -3.984736571291707E-1
458 494 -3.139279949996
458 495 6.19199068643262E-1
458 496 7.088853715717207E-1
458 497 -9.229918561573102
458 498 3.4907702046751323
458 499 -3.6268064606605357
458 500 2.327977796491802
458 501 -7.806440256693827E-1
458 502 3.288851140762471
458 505 -5.85679775345505
458 506 -8.200513558161651E-1
458 507 -3.105397868235687
459 347 -1.2159932174518453
459 348 -9.329779372982109E-1
459 349 -1.0405900033163231
459 375 1.6832139237664328
459 376 -9.968964696551227E-1
459 377 -9.660063755055068E-1
459 455 5.947726725084563E-1
459 456 -3.79796085195508E-1
459 457 -1.208593260638625
459 458 -3.2397303127380113
459 459 4.473203128605924E1
459 460 -4.202756561850027
459 461 4.857450043353899E-1
459 462 -4.303755312086272
459 463 2.6759825636871515
459 464 3.4536400801946565E-1
459 465 -2.3699844987191756E1
459 466 4.347568392801925E-1
459 470 -9.959793036071339E-1
459 471 1.6873948601841093
459 472 4.4324993099456866E-2
459 494 9.733657353120657E-1
459 495 -4.3061735256310225
459 496 -1.422161246599957
459 497 2.9699368713407264
459 498 -1.0684068093821251E1
459 499 4.548627288137276
459 500 -7.806440256693822E-1
459 501 5.145690015962312E-1
459 502 1.8730372206473707
459 505 -8.200513558161642E-1
459 506 -1.630482736960431
459 507 -7.3662145694101E-1
460 347 -1.6823071367434883E-2
460 348 -1.0405900033163236
460 349 7.100803693230051E-1
460 375 3.626156124873167E-1
460 376 -9.660063755055057E-1
460 377 1.0324784861533836
460 455 1.0651870120173249E-1
460 456 -1.208593260638625
460 457 1.6562187151778107
460 458 1.857263040481096E1
460 459 -4.202756561850027
460 460 7.05247169337033E1
460 461 -3.4028191457732637E-1
460 462 2.6759825636871515
460 463 -2.293454195970117
460 464 -1.71229682588586E1
460 465 4.347568392801929E-1
460 466 -4.870619956967748E1
460 470 1.311096762053805E-1
460 471 4.432499309945592E-2
460 472 -2.116644900074772
460 494 1.2297187049380818
460 495 -1.4221612465999565
460 496 -5.65887610584063
460 497 -3.1059731273668936
460 498 4.548627288137277
460 499 -1.2009517574377316E1
460 500 3.2888511407624694
460 501 1.8730372206473702
460 502 -1.0352050767905416
460 505 -3.1053978682356864
460 506 -7.366214569410102E-1
460 507 -2.103597081626633
461 455 -1.1897556288381113E1
461 456 -3.205762926844698E-2
461 457 3.763904758571477
461 458 -1.6855752951085874
461 459 4.857450043353899E-1
461 460 -3.4028191457732637E-1
461 461 2.813863943900374E1
461 462 2.1173494501599253
461 463 -1.6481164898427125
461 464 -4.977507478918919E-1
461 465 -9.096369855788761E-1
461 466 1.289884290486298E-1
461 479 -4.5499781896417
461 480 -2.2639171340329273E-1
461 481 -1.6848309597236923
461 500 9.565025281205547E-1
461 501 1.8945110746354188
461 502 1.8114789560761195
461 503 -2.0503804400532424
461 504 2.7392645641315037
461 505 -4.201769864092622
461 506 6.51036190607402E-2
461 507 -3.7658742991191496
461 536 -2.736697437403331
461 537 -1.6813475326120741
461 538 -1.171513914696634
461 542 3.913368783272161E-1
461 543 3.371051527244572E-1
461 544 1.6698087013178242E-1
461 569 -3.917151022932267
462 455 -5.289096260060186E-2
462 456 -1.066913977852544E1
462 457 3.102749508024252E-1
462 458 2.9824500433553175E-1
462 459 -4.303755312086272
462 460 2.6759825636871515
462 461 2.1173494501599253
462 462 2.955679909132194E1
462 463 2.3072339335754533E-1
462 464 -1.3263036522471197
462 465 -1.5790386273845938
462 466 -1.182868655053002
462 479 -5.38891713404479E-1
462 480 -3.9416762871251088
462 481 -1.3800134310053642
462 500 1.894511074635419
462 501 7.439919688054358E-1
462 502 -1.7721305209420333
462 503 -2.0564316678712684
462 504 1.830166428224646
462 505 6.510361906074114E-2
462 506 -1.58810058322346
462 507 1.0589102304959413E-2
462 536 -1.1813475326110314
462 537 -5.713127333018143
462 538 -2.2706890724521047
462 542 7.746051527248545E-1
462 543 -4.49521470893088E-1
462 544 1.5479652410757776
462 569 -2.050380440053242
463 455 4.805571425231603
463 456 3.10274950802424E-1
463 457 -2.639387428598013E1
463 458 1.8055141875264413E-1
463 459 2.6759825636871515
463 460 -2.293454195970117
463 461 -1.6481164898427125
463 462 2.3072339335754533E-1
463 463 4.499588115419455E1
463 464 -2.4303538044377693E-1
463 465 -1.1828686550530023
463 466 1.0136023019524876E-2
463 479 -2.6520928644649397
463 480 -1.380013431005364
463 481 -9.991096068039079
463 500 1.8114789560761206
463 501 -1.7721305209420322
463 502 2.017520268541626
463 503 1.8301664282246457
463 504 -2.0284298889031778
463 505 -3.7658742991191505
463 506 1.058910230495853E-2
463 507 -2.689820620521937
463 536 -7.250853432853595E-1
463 537 -2.2706890724521043
463 538 -2.498101590069157
463 542 -5.026619870359385E-1
463 543 1.5479652410757785
463 544 -1.1287607962721071
463 569 2.739264564131505
464 347 1.0879259414654043
464 348 8.68415417527425E-1
464 349 3.955401755167678E-1
464 351 -3.1733655351213963E-1
464 352 -7.312926991217987E-1
464 353 1.1551060463215657E-1
464 375 -6.756651203137812E-1
464 376 1.241759825072466
464 377 3.6727823029637977E-13
464 458 -3.479682764509782E1
464 459 3.4536400801946565E-1
464 460 -1.71229682588586E1
464 461 -4.977507478918919E-1
464 462 -1.3263036522471197
464 463 -2.4303538044377693E-1
464 464 4.608648599617681E1
464 465 7.89803419268577E-1
464 466 1.8302393241902298E1
464 476 -4.754234043481663
464 477 -1.6940578158257125E-1
464 478 -1.5644756296475004
464 479 -4.3620792743237485E-1
464 480 2.716700560834946E-1
464 481 1.1703524689866995E-1
464 500 -5.6963898999125435
464 501 -1.290010593019938
464 502 -3.8062575106483705E-13
465 347 7.017487508607648E-1
465 348 -2.0709867981797195E-1
465 349 1.6384414704193269
465 351 -1.0646260324572414
465 352 -1.1303629905272319
465 353 -1.0240259189031105
465 375 1.241759825072466
465 376 2.4181998728769022E-1
465 377 1.2886293942009837E-14
465 458 3.0369734135411586E-1
465 459 -2.3699844987191756E1
465 460 4.347568392801929E-1
465 461 -9.096369855788761E-1
465 462 -1.5790386273845938
465 463 -1.1828686550530023
465 464 7.89803419268577E-1
465 465 3.4619835320010786E1
465 466 -8.86835663061773E-2
465 476 -4.194057815841546E-1
465 477 -4.268599810536356
465 478 -1.433636286640882
465 479 6.46670056084288E-1
465 480 -1.1661702104510583
465 481 1.6560161172036536
465 500 -1.2900105930199384
465 501 -2.8105400013895045
465 502 -1.3556149766896897E-14
466 347 9.163735088467602E-1
466 348 1.6384414704193273
466 349 2.516649319001033E-1
466 351 -1.821084429491145E-1
466 352 -1.0240259189031105
466 353 5.268035253269427E-1
466 375 3.6715898111872823E-13
466 376 1.2771418211368311E-14
466 377 1.3244548460493917
466 458 -1.6081301592198514E1
466 459 4.347568392801925E-1
466 460 -4.870619956967748E1
466 461 1.289884290486298E-1
466 462 -1.182868655053002
466 463 1.0136023019524876E-2
466 464 1.8302393241902298E1
466 465 -8.86835663061773E-2
466 466 6.423955078432242E1
466 476 -2.4573327724698997
466 477 -1.433636286640882
466 478 -1.0960028888181661E1
466 479 -6.270123721801474E-1
466 480 1.6560161172036527
466 481 -2.7511391058563537
466 500 -3.795781456553921E-13
466 501 -1.3605946484893161E-14
466 502 -3.9352425469028742
467 304 -1.6294692762778384
467 305 -2.946436311513463E-1
467 306 -7.441121200010181E-2
467 323 -1.9524437952759288
467 324 1.171767390921298
467 325 -1.963237309962258E-1
467 338 -4.76073655751761E-1
467 339 -1.0599650655748338
467 367 -2.6676447617946932
467 384 -6.2165573853560085E-2
467 385 1.128162434067205
467 386 1.9443256345325712
467 449 -1.6465008261749343
467 450 2.120545389407745E-1
467 451 -1.8593127856055713E-2
467 467 2.2617588543678703E1
467 468 2.4915444174655437
467 469 -2.155484403841611E-1
467 470 5.878273689578771E-1
467 471 -1.118662423725786
467 472 -6.114331955666154E-1
467 487 -7.756124675050884
467 488 -1.4369503958786027
467 489 -2.4765046290240678
467 497 -7.491067004208749
467 498 -1.6771986748873247
467 499 2.708453766869491
468 304 -4.8214363114943715E-1
468 305 -1.8742720415151235
468 306 1.4341537114366574
468 323 6.259188442843253E-1
468 324 -5.791074988783266
468 325 1.407845162162216
468 338 -2.6747196675443603
468 339 -2.230834895147158
468 367 -8.198236557754244E-1
468 384 1.1281624340672052
468 385 1.8817384087235147
468 386 -4.0718775593781187E-1
468 449 5.245545389375937E-1
468 450 -2.2524621797054314
468 451 -1.792692139295826
468 467 2.4915444174655437
468 468 2.6627901076456205E1
468 469 -2.524296438295093
468 470 -5.874124237040311E-1
468 471 -1.413552203764218
468 472 3.989325725010483E-1
468 487 -1.4369503958786027
468 488 -5.5309089349634615
468 489 5.186386192477169E-1
468 497 -1.4438501282471718
468 498 -8.972649468903866
468 499 3.195441163328251
469 304 7.440411689435944E-1
469 305 1.4341537114366576
469 306 -5.704925873200887
469 323 -2.2459263699272564E-1
469 324 1.4078451621622148
469 325 -9.730742149652176E-1
469 338 -2.230834895147158
469 339 -5.730879729667421
469 367 -1.811215065563934
469 384 1.9443256345325723
469 385 -4.071877559378115E-1
469 386 1.4783297873628165
469 449 7.998592530882589E-1
469 450 -1.792692139295825
469 451 -5.269063047574328
469 467 -2.155484403841611E-1
469 468 -2.524296438295093
469 469 2.9991308983487468E1
469 470 -6.786355765212103E-1
469 471 3.9893257250104835E-1
469 472 1.7724769410937888
469 487 -2.476504629024068
469 488 5.186386192477164E-1
469 489 -5.017083832601858
469 497 1.918270291921675
469 498 3.195441163328251
469 499 -1.0547089013934366E1
470 449 -4.751816145330932
470 450 -1.696436311526198E-1
470 451 1.5624935498970953
470 452 -4.372884512782142E-1
470 453 2.7197517020121603E-1
470 454 -1.144926292509928E-1
470 458 1.0450198821957912
470 459 -9.959793036071339E-1
470 460 1.311096762053805E-1
470 467 5.878273689578771E-1
470 468 -5.874124237040311E-1
470 469 -6.786355765212103E-1
470 470 4.111282120557941E1
470 471 -4.3778854395479385
470 472 -8.993828007134626
470 473 1.2430232222594906
470 474 -1.1103884986897647
470 475 -8.008942483766728E-1
470 482 -1.5457583472768562E1
470 483 1.5666383518696725E-1
470 484 1.3666632199737823
470 487 3.8314097272873857
470 488 1.6291736803771582
470 489 -2.1629220097039994
470 494 -1.3258384640937676E1
470 495 2.877302758471024
470 496 2.992875014368611
470 497 -1.574817648789382E1
470 498 3.8731967296609007
470 499 5.950499233630371
470 505 1.833147791929259
470 506 -1.567002877195781
470 507 7.471317769122611E-1
471 449 -4.196436311500752E-1
471 450 -4.267047062506534
471 451 1.4341537114366611
471 452 6.469751701989861E-1
471 453 -1.1660311696882095
471 454 -1.655062187694882
471 458 -9.855626369413131E-1
471 459 1.6873948601841093
471 460 4.432499309945592E-2
471 467 -1.118662423725786
471 468 -1.413552203764218
471 469 3.9893257250104835E-1
471 470 -4.3778854395479385
471 471 4.502994662243575E1
471 472 4.276629562878609
471 473 -5.895551653338306E-1
471 474 -9.680256301205055E-1
471 475 5.945670036803801E-1
471 482 1.566638351869656E-1
471 483 -1.363208635353481E1
471 484 -1.7084488102964308
471 487 1.629173680377159
471 488 2.944201475840168
471 489 -7.83422438317149E-2
471 494 3.252302758471674
471 495 -1.9199661878248776E1
471 496 -1.9566799130474166
471 497 3.3731967296599312
471 498 -1.4812641159343482E1
471 499 -2.865583986691764
471 505 -1.5670028771957796
471 506 5.797502498746505
471 507 1.515509297966053
472 449 2.4553506927538944
472 450 1.4341537114366605
472 451 -1.0957291577617738E1
472 452 6.29554989802634E-1
472 453 -1.655062187694881
472 454 -2.750087061275285
472 458 -3.984736571291707E-1
472 459 4.4324993099456866E-2
472 460 -2.116644900074772
472 467 -6.114331955666154E-1
472 468 3.989325725010483E-1
472 469 1.7724769410937888
472 470 -8.993828007134626
472 471 4.276629562878609
472 472 4.7839114382387756E1
472 473 -9.337513912378519E-1
472 474 5.945670036803802E-1
472 475 2.140944552071524
472 482 1.366663219973782
472 483 -1.7084488102964293
472 484 -1.4169573247949264E1
472 487 -2.1629220097040007
472 488 -7.834224383171515E-2
472 489 6.207752323270371
472 494 2.4720416810637125
472 495 -1.9566799130474175
472 496 -1.4505863731469221E1
472 497 5.429665900265978
472 498 -2.8655839866917643
472 499 -1.684012370526758E1
472 505 7.471317769122632E-1
472 506 1.5155092979660512
472 507 3.379296024830429
473 452 -4.536180911411186
473 453 -2.2664597516672108E-1
473 454 1.6827121116951267
473 455 -2.485580623605696
473 456 1.4415453371243533E-1
473 457 -3.4652365280060105E-3
473 470 1.2430232222594906
473 471 -5.895551653338306E-1
473 472 -9.337513912378519E-1
473 473 2.3694527336548166E1
473 474 2.299367307468161
473 475 -2.5054299122961248
473 482 2.3196292115400385E-1
473 483 1.8548259038062467
473 484 -1.1905801328151226
473 494 -5.808638026050749
473 495 5.904244571006231E-1
473 496 1.446245322983439
473 505 -5.646980827484738
473 506 -1.0134007671236872E-2
473 507 3.2621492983119125
473 521 4.066402000145183E-1
473 522 3.350954518904248E-1
473 523 -1.837283770820511E-1
473 533 8.634562750607623E-1
473 534 8.258887291446707E-2
473 535 1.4121278029296187
473 539 -4.414824842906887
473 540 -2.5694669897347264
473 541 -2.261155547648315E-1
473 551 -3.5474047235776873
473 552 -1.91065438898584
473 553 -2.760163931196108
474 452 -5.391459751635406E-1
474 453 -3.928895312738759
474 454 1.3792184897398996
474 455 8.165453373554614E-2
474 456 -2.070536449976459
474 457 -3.989249365602313E-1
474 470 -1.1103884986897647
474 471 -9.680256301205055E-1
474 472 5.945670036803802E-1
474 473 2.299367307468161
474 474 2.692919032681482E1
474 475 1.3294973435952544
474 482 1.8548259038062485
474 483 -4.373481006000608E-1
474 484 1.4554566872167018
474 494 2.362577904318223E-1
474 495 -9.068166213608732
474 496 -3.495699987780144
474 505 -1.013400767123629E-2
474 506 -1.424882175459823
474 507 2.576243365601162E-1
474 521 7.725954518893097E-1
474 522 -4.449765278665067E-1
474 523 -1.551991584155406
474 533 3.117555395812053E-1
474 534 2.411301266854117E-1
474 535 1.8616497049162248
474 539 -1.986133656401904
474 540 -6.937030708945851
474 541 3.9306921741850115E-1
474 551 -1.910654388985841
474 552 -1.8904593341835347
474 553 -1.8244662746312976
475 452 2.649974016472764
475 453 1.3792184897398994
475 454 -9.959730667634016
475 455 -8.059652365567823E-1
475 456 -3.989249365602312E-1
475 457 -7.887428548854693
475 470 -8.008942483766728E-1
475 471 5.945670036803801E-1
475 472 2.140944552071524
475 473 -2.5054299122961248
475 474 1.3294973435952544
475 475 3.131641998127882E1
475 482 -1.190580132815123
475 483 1.4554566872167012
475 484 1.452004298537847
475 494 9.254119896170792E-1
475 495 -3.495699987780143
475 496 -8.007356923264739
475 505 3.262149298311913
475 506 2.5762433656011663E-1
475 507 -3.050222117826711
475 521 4.8591448007306354E-1
475 522 -1.5519915841554064
475 523 -1.1259825921033702
475 533 8.912944696120985E-1
475 534 1.8616497049162253
475 535 3.1559611519548963E-1
475 539 -1.5171079284610495E-1
475 540 3.930692174184999E-1
475 541 -3.335174550045443
475 551 -2.760163931196108
475 552 -1.8244662746312974
475 553 -1.8590695473547139
476 332 5.252940244278279E-1
476 333 4.673107643855882E-1
476 351 -1.6437400211523427
476 352 5.242572269788628E-1
476 353 -7.973816534321678E-1
476 355 1.7762312632711724E-1
476 375 -3.647477226016952
476 376 9.176344326992738E-1
476 377 -1.5725697167952986
476 464 -4.754234043481663
476 465 -4.194057815841546E-1
476 466 -2.4573327724698997
476 476 9.973929198730616
476 477 -1.2877683453349897E-1
476 478 4.123950415624755
476 479 3.567278199129245E-1
476 480 -1.1804143298296316E-1
476 481 4.061937645370885E-1
476 500 -8.104997524204101E-1
476 501 -9.532907369046371E-1
476 502 -1.7017080185006622E-1
477 332 -7.237687367446582E-2
477 333 -2.7307357830769635E-1
477 351 2.1175722697767668E-1
477 352 -2.250782812332435
477 353 1.7920453582965545
477 355 -3.631808628534176E-1
477 375 9.176344326992736E-1
477 376 -1.8575612600521612
477 377 5.025435863347423E-1
477 464 -1.6940578158257125E-1
477 465 -4.268599810536356
477 466 -1.433636286640882
477 476 -1.2877683453349897E-1
477 477 9.38515188244158
477 478 -1.3152320139808668E-1
477 479 1.9445856701822284E-1
477 480 -7.348847599682067E-1
477 481 6.571492537356771E-2
477 500 -9.532907369046371E-1
477 501 8.985762330099761E-2
477 502 -5.22070803658199E-1
478 332 4.2554637844771925E-1
478 333 1.3002273347295175
478 351 2.1070727548539003E-2
478 352 1.792045358296555
478 353 -5.266295328531041
478 355 2.73073578498778E-1
478 375 -2.4896862672780853
478 376 1.0282629886166978
478 377 -2.9999948246110604
478 464 -1.5644756296475004
478 465 -1.433636286640882
478 466 -1.0960028888181661E1
478 476 4.123950415624755
478 477 -1.3152320139808668E-1
478 478 1.585219746394224E1
478 479 5.048579340391693E-1
478 480 -4.6000447690838786E-1
478 481 7.972117838668169E-1
478 500 -1.021263558734598
478 501 -1.0682179604646738
478 502 1.2766824587851877
479 461 -4.5499781896417
479 462 -5.38891713404479E-1
479 463 -2.6520928644649397
479 464 -4.3620792743237485E-1
479 465 6.46670056084288E-1
479 466 -6.270123721801474E-1
479 476 3.567278199129245E-1
479 477 1.9445856701822284E-1
479 478 5.048579340391693E-1
479 479 1.0140741468862274E1
479 480 -1.1678175723284381E-1
479 481 4.1644898186021395
479 500 -4.104842302655288
479 501 1.101125685547385
479 502 -1.3542475698010943
479 503 -1.1452644806045225
479 504 -4.141277031682139E-1
479 542 2.1227952522056945E-1
479 543 -1.4131635740805057E-1
479 544 3.7813275697308757E-1
479 569 -1.6187203942664043
480 461 -2.2639171340329273E-1
480 462 -3.9416762871251088
480 463 -1.380013431005364
480 464 2.716700560834946E-1
480 465 -1.1661702104510583
480 466 1.6560161172036527
480 476 -1.1804143298296316E-1
480 477 -7.348847599682067E-1
480 478 -4.6000447690838786E-1
480 479 -1.1678175723284381E-1
480 480 9.19671490527835
480 481 3.300316329790474E-1
480 500 1.1011256855473854
480 501 -1.8278127433870341
480 502 4.905889047846871E-1
480 503 -4.541614740173492E-1
480 504 -5.102542376434264E-1
480 542 2.3368364259274263E-1
480 543 -1.0720094303295937
480 544 -1.263645094102091E-1
480 569 -1.1452644806045231
481 461 -1.6848309597236923
481 462 -1.3800134310053642
481 463 -9.991096068039079
481 464 1.1703524689866995E-1
481 465 1.6560161172036536
481 466 -2.7511391058563537
481 476 4.061937645370885E-1
481 477 6.571492537356771E-2
481 478 7.972117838668169E-1
481 479 4.1644898186021395
481 480 3.300316329790474E-1
481 481 1.3867003375654505E1
481 500 -2.2715405023984583
481 501 9.960469426849968E-1
481 502 -2.4611182686989452
481 503 -1.0359736399253814
481 504 2.0453020217378662E-1
481 542 5.513780704916323E-1
481 543 -6.318225473105199E-1
481 544 3.346080808992678E-1
481 569 -1.282725438407379
482 364 1.7888418054070185
482 449 -8.069237296328997E-1
482 450 -9.536278859830044E-1
482 451 1.0195125820477615
482 452 -4.091530689368895
482 453 1.1031904705640498
482 454 2.2614227140718883
482 470 -1.5457583472768562E1
482 471 1.566638351869656E-1
482 472 1.366663219973782
482 473 2.3196292115400385E-1
482 474 1.8548259038062485
482 475 -1.190580132815123
482 482 3.3685979108688066E1
482 483 -2.4801229227804935
482 484 -6.864564100249576
482 485 -8.535351513721362E-1
482 486 -2.4375908130971646E-1
482 487 -8.900448434422797
482 488 1.4799077542429593
482 489 2.5028943362976728
482 490 -4.431274803487724
482 491 1.5462330978397465
482 494 4.451570390801787
482 495 -9.536316464479846E-1
482 496 -1.9495902679025248
482 497 7.927478695970616
482 498 -1.1029965332706482
482 499 -2.9938814457449627
482 505 -1.0230351175241506E1
482 506 6.035426609904727E-1
482 507 4.685963429788509
482 551 -1.5253436603199435
482 552 1.2938058758977888E-1
482 553 -1.4031435199745634E-1
482 606 -1.6259740293053626
483 364 -2.0742817644288656
483 449 -9.536278859830042E-1
483 450 9.011911832067532E-2
483 451 1.0680164456772687
483 452 1.10319047056405
483 453 -1.8268576471711067
483 454 -9.996917869351432E-1
483 470 1.5666383518696725E-1
483 471 -1.363208635353481E1
483 472 -1.7084488102964293
483 473 1.8548259038062467
483 474 -4.373481006000608E-1
483 475 1.4554566872167012
483 482 -2.4801229227804935
483 483 3.432348259597957E1
483 484 3.5208242864752943
483 485 -1.6259740293053628
483 486 3.5691014875060056E-1
483 487 1.4799077542429577
483 488 -1.1738259125633709E1
483 489 -2.358665082586109
483 490 1.788841805407018
483 491 -3.736318509882833E-1
483 494 -9.536316464479848E-1
483 495 6.785558776540671
483 496 1.6554017060123303
483 497 -1.1029965332706486
483 498 5.0720173268624675
483 499 -1.518994018774321
483 505 6.035426609904734E-1
483 506 -1.0262714256013943E1
483 507 -1.1982006950671445E-1
483 551 1.2938058758978116E-1
483 552 -6.54866892802106
483 553 -9.773576550451946E-1
483 606 2.490383577001718E-1
484 364 -9.704326937381109E-1
484 449 1.6917490317226663E-1
484 450 5.216721746538612E-1
484 451 1.2777748508831586
484 452 1.3495983551693975
484 453 -4.9291902476218735E-1
484 454 -2.4595724579640263
484 470 1.3666632199737823
484 471 -1.7084488102964308
484 472 -1.4169573247949264E1
484 473 -1.1905801328151226
484 474 1.4554566872167018
484 475 1.452004298537847
484 482 -6.864564100249576
484 483 3.5208242864752943
484 484 3.71691559859567E1
484 485 5.417690228930059E-1
484 486 1.130418763226408
484 487 2.62919059099744
484 488 -3.4281771625400417
484 489 -1.072182876089579E1
484 490 2.5673348057749688
484 491 -2.146648659786611
484 494 -1.9495902679025243
484 495 1.6554017060123312
484 496 3.9165942648187215
484 497 -2.9938814457449645
484 498 -1.5189940187743205
484 499 5.223252039837477
484 505 4.685963429788507
484 506 -1.1982006950671381E-1
484 507 -1.9266211531441428E1
484 551 -3.1107838105718144E-1
484 552 1.6578745872804057E-1
484 553 -1.405365545223189
484 606 9.196494665315774E-1
485 364 -7.556100574781832E-2
485 366 -7.401989696824132E-1
485 381 5.214756864529006
485 382 2.260914781771037
485 383 1.7194598204036476E-1
485 482 -8.535351513721362E-1
485 483 -1.6259740293053628
485 484 5.417690228930059E-1
485 485 4.008093232226566E1
485 486 1.2399186166721308
485 490 7.696376126845852E-1
485 491 -8.62049528830106E-1
485 492 -1.56166799505725E1
485 493 8.673303679087228E-1
485 505 -6.8269831545343855
485 506 -2.6266354791005533
485 507 -2.5991756409600226
485 551 -6.05240944043076
485 552 2.2972266336197014
485 553 -5.640387762175547E-2
485 554 -3.2177148579876463E-1
485 555 1.3493900303539603
485 556 4.741249431773492E-1
485 600 -8.697030402200103E-1
485 601 -1.8252692435503648
485 602 -5.425669541311104E-1
485 603 -9.345297285985326
485 604 -2.3885252818972784
485 605 -1.5625582438593544
485 606 3.1136495817729397
485 622 -7.666831660396174
485 623 -3.5561099334892343E-1
485 624 -1.697536494833965E-2
485 625 1.4878843698308093
485 626 6.165939751150775E-1
485 627 2.3446406776591155
486 364 -1.242416687000267
486 366 3.1878824440829643
486 381 1.7194598204036515E-1
486 382 -4.00855712534665
486 383 1.7383380579321135
486 482 -2.4375908130971646E-1
486 483 3.5691014875060056E-1
486 484 1.130418763226408
486 485 1.2399186166721308
486 486 4.146933779319148E1
486 490 -8.487768707253796E-1
486 491 1.1702770185856566
486 492 1.4989841225444538
486 493 -1.6021463303814635E1
486 505 -2.5991756409600244
486 506 -2.0992381437419034
486 507 -9.860812609289288
486 551 -1.0447444777726145
486 552 4.1945332191249596E-1
486 553 -2.2851766186825833
486 554 1.1901670049781643E-1
486 555 5.341104395475734E-1
486 556 1.0790914888952463E-1
486 600 1.0509272146493776E-2
486 601 5.556319013125784E-1
486 602 1.6482914309028412E-1
486 603 -6.315839358443012E-1
486 604 -1.3993630309217977
486 605 -6.553108665965518
486 606 -2.3339261473416038
486 622 -1.6975364948338123E-2
486 623 4.793219312208766
486 624 -1.5647031097687135E1
486 625 2.344640677659114
486 626 1.2362935665372434
486 627 4.5864823705237
487 278 7.843919762308008E-1
487 279 -6.416886792109952E-2
487 304 -3.822232791345897
487 305 -5.75045238001274E-1
487 306 2.6303701378552744
487 323 2.006321384680597
487 324 -1.7948466190428762
487 325 -1.4675753523048956
487 334 -6.01232566340336E-1
487 361 -3.6803539155077862
487 362 1.6306206066676812
487 363 -5.864735824447934E-1
487 364 -2.037055636815297
487 384 -7.254501596722283
487 385 8.318114342444536E-1
487 386 4.085450399940127
487 449 -3.6500495591519004
487 450 9.170991938973059E-1
487 451 2.4909183141732156
487 467 -7.756124675050884
487 468 -1.4369503958786027
487 469 -2.476504629024068
487 470 3.8314097272873857
487 471 1.629173680377159
487 472 -2.1629220097040007
487 482 -8.900448434422797
487 483 1.4799077542429577
487 484 2.62919059099744
487 487 3.8292752611808E1
487 488 -9.47408621781415E-1
487 489 -4.280010872894168
487 490 -9.019373587283908
487 491 7.386157057202987E-1
487 497 -4.055671877371689
487 498 9.838921677375478E-1
487 499 -1.6863354381823816
487 505 4.609505279421501
487 506 -1.4655903018784395
487 507 1.4944560378905264E-1
488 278 -4.577170281320352
488 279 1.2297054585521234
488 304 -5.75045238001274E-1
488 305 -2.3803886505882605
488 306 1.1624968720853204
488 323 -1.7948466190428771
488 324 1.540093801362392
488 325 -1.9929146640299984
488 334 7.843919762308001E-1
488 361 1.6306206066676814
488 362 -8.105253155156313E-1
488 363 -1.7317827391948762E-1
488 364 -3.9369500876655428
488 384 8.318114342444528E-1
488 385 -7.3944909351915795
488 386 -3.7058957399497015
488 449 9.170991938973057E-1
488 450 -1.8570927460506907
488 451 -1.0271061027017252
488 467 -1.4369503958786027
488 468 -5.5309089349634615
488 469 5.186386192477164E-1
488 470 1.6291736803771582
488 471 2.944201475840168
488 472 -7.834224383171515E-2
488 482 1.4799077542429593
488 483 -1.1738259125633709E1
488 484 -3.4281771625400417
488 487 -9.47408621781415E-1
488 488 3.322041330708212E1
488 489 2.8577177711760764
488 490 -2.0370556368152974
488 491 2.4402010579793076E-1
488 497 9.838921677375504E-1
488 498 -8.949771754062573E-1
488 499 1.0922337447317572
488 505 -1.4655903018784397
488 506 1.4160546680508006
488 507 3.3008016153817437
489 278 1.2445725549063114E-1
489 279 -9.595746076210528E-1
489 304 1.657473901070848
489 305 5.925185704300475E-1
489 306 -4.423925269744267
489 323 -1.4675753523048958
489 324 -1.992914664029998
489 325 4.700022888468168
489 334 2.846027602426021E-2
489 361 5.127189090394025E-1
489 362 -6.727120522181467E-1
489 363 1.620722971888785E-1
489 364 8.238517413379179E-1
489 384 4.085450399940125
489 385 -3.7058957399497015
489 386 -1.6327924412652845E1
489 449 1.5729945834790233
489 450 -5.016895351802214E-1
489 451 -2.99925535577536
489 467 -2.4765046290240678
489 468 5.186386192477169E-1
489 469 -5.017083832601858
489 470 -2.1629220097039994
489 471 -7.83422438317149E-2
489 472 6.207752323270371
489 482 2.5028943362976728
489 483 -2.358665082586109
489 484 -1.072182876089579E1
489 487 -4.280010872894168
489 488 2.8577177711760764
489 489 3.804062055519883E1
489 490 1.5639102924691306
489 491 -3.9491971285756065
489 497 -1.686335438182382
489 498 1.092233744731756
489 499 -6.007311929358811
489 505 1.4944560378905195E-1
489 506 3.3008016153817437
489 507 1.2956332330993403
490 358 -3.3841286836393105
490 359 1.6080745483420738
490 360 -1.5648643253591534
490 361 -4.260747900832117
490 362 2.3489091073599258
490 363 -3.08416269773517E-1
490 364 2.2193842107869002E-1
490 366 -3.685970592477128
490 378 8.274913366609201
490 379 1.9626873148765836E-1
490 380 -5.849819049281946E-2
490 381 -1.0222266238740309E1
490 382 6.13622381863523E-1
490 383 4.431008361157523
490 384 -1.7159265137901465
490 385 -1.690057223170486
490 386 -1.7853032256380184
490 482 -4.431274803487724
490 483 1.788841805407018
490 484 2.5673348057749688
490 485 7.696376126845852E-1
490 486 -8.487768707253796E-1
490 487 -9.019373587283908
490 488 -2.0370556368152974
490 489 1.5639102924691306
490 490 4.52578281440561E1
490 491 -1.7498086142812133
490 492 -1.0037165380400472E1
490 493 3.904135401040424E-1
490 505 -1.123149601517591E1
490 506 7.109894626718383E-1
490 507 -2.6369995032355638
490 606 -7.556100574781854E-2
491 358 -7.26297080505597E-1
491 359 9.252012384221573E-1
491 360 -1.1018602062337226
491 361 -1.8127001555316455E-1
491 362 6.160764039302101E-1
491 363 -3.952139157532862
491 364 -1.2824700974638747
491 366 -1.4765810701090104E-1
491 378 -5.849819049281879E-2
491 379 -1.1063461733741067E-1
491 380 6.799273461512605E-1
491 381 4.431008361157523
491 382 -2.508023319324865E-2
491 383 -6.073613397479862
491 384 -1.7853032256380201
491 385 -3.564785638628952
491 386 -2.046198426804841
491 482 1.5462330978397465
491 483 -3.736318509882833E-1
491 484 -2.146648659786611
491 485 -8.62049528830106E-1
491 486 1.1702770185856566
491 487 7.386157057202987E-1
491 488 2.4402010579793076E-1
491 489 -3.9491971285756065
491 490 -1.7498086142812133
491 491 3.443852678741444E1
491 492 1.2843689938189136
491 493 -7.9687097654914485
491 505 -2.6369995032355624
491 506 3.9669090363575963
491 507 -9.050364410246408
491 606 -2.4794623988522357E-1
492 83 -8.583482778432552
492 358 -5.871936776448552E-1
492 359 4.737554492506618E-1
492 360 1.700149610096352E-1
492 364 -3.6859705924771315
492 365 -1.2782383826555268
492 366 4.05873352743872
492 381 -1.0804745876341293E1
492 382 -1.5185428973903723
492 383 2.3865480692295782E-1
492 427 1.7587625484531395
492 485 -1.56166799505725E1
492 486 1.4989841225444538
492 490 -1.0037165380400472E1
492 491 1.2843689938189136
492 492 4.102581420579886E1
492 493 -6.077131104644682E-1
492 505 5.249788317768177
492 506 2.0249308954534144
492 507 -2.398430002879044
492 603 -2.429505687060098
492 604 -1.9457317604390885
492 605 -9.753421085507639E-1
492 606 -7.401989696824123E-1
492 625 1.783170826884726
492 626 -4.257382006069299E-1
492 627 2.0677007202538435
493 83 -3.923350439060179E-1
493 358 2.792907212792404E-1
493 359 -3.7537019109449626E-1
493 360 -7.249620643521237E-1
493 364 -5.625591654692833E-1
493 365 -3.0607678738107107
493 366 -1.903907822377004
493 381 2.386548069229604E-1
493 382 -1.5048228631168081
493 383 -1.6213626668176744E1
493 427 2.020395933218614E-1
493 485 8.673303679087228E-1
493 486 -1.6021463303814635E1
493 490 3.904135401040424E-1
493 491 -7.9687097654914485
493 492 -6.077131104644682E-1
493 493 3.965372637968079E1
493 505 -2.398430002879043
493 506 -7.883435082419583E-1
493 507 5.618500813460135
493 603 -4.449119992192766E-1
493 604 -1.2038312903437713
493 605 -2.1379693366971777
493 606 3.8703902612918437
493 625 2.0677007202538427
493 626 2.2664049860296163
493 627 8.552718192019096E-1
494 455 -2.07190405956638
494 456 -2.7121840766754596E-1
494 457 3.2386827933822826E-1
494 458 -3.139279949996
494 459 9.733657353120657E-1
494 460 1.2297187049380818
494 470 -1.3258384640937676E1
494 471 3.252302758471674
494 472 2.4720416810637125
494 473 -5.808638026050749
494 474 2.362577904318223E-1
494 475 9.254119896170792E-1
494 482 4.451570390801787
494 483 -9.536316464479848E-1
494 484 -1.9495902679025243
494 494 2.665574116741296E1
494 495 -4.0445114823362305
494 496 -4.652158934305982
494 505 -6.82910488166395
494 506 8.074352522361992E-1
494 507 1.6507085472514018
495 455 1.0378159233310824E-1
495 456 -3.6117208044776103
495 457 2.234824815917455
495 458 6.19199068643262E-1
495 459 -4.3061735256310225
495 460 -1.4221612465999565
495 470 2.877302758471024
495 471 -1.9199661878248776E1
495 472 -1.9566799130474175
495 473 5.904244571006231E-1
495 474 -9.068166213608732
495 475 -3.495699987780143
495 482 -9.536316464479846E-1
495 483 6.785558776540671
495 484 1.6554017060123312
495 494 -4.0445114823362305
495 495 3.6369455882468856E1
495 496 4.385935155840743
495 505 8.074352522361979E-1
495 506 -6.969292237043391
495 507 -1.4016205303430112
496 455 -1.9696505396666947E-1
496 456 2.2348248159174555
496 457 -4.6226213892521235
496 458 7.088853715717207E-1
496 459 -1.422161246599957
496 460 -5.65887610584063
496 470 2.992875014368611
496 471 -1.9566799130474166
496 472 -1.4505863731469221E1
496 473 1.446245322983439
496 474 -3.495699987780144
496 475 -8.007356923264739
496 482 -1.9495902679025248
496 483 1.6554017060123303
496 484 3.9165942648187215
496 494 -4.652158934305982
496 495 4.385935155840743
496 496 3.341827789786675E1
496 505 1.6507085472514014
496 506 -1.4016205303430105
496 507 -4.540154012858764
497 338 -7.318664376030024E-1
497 339 9.214721846135544E-2
497 347 -8.580151036721961
497 348 -1.8369742162516602
497 349 -2.4478119966718555
497 367 -6.192897588977871E-1
497 375 2.434544218206448
497 376 2.1204328848484721E-1
497 377 3.1431116149539577
497 384 -5.5605285523310695
497 385 2.746114780124209
497 386 1.2906454565668857E-1
497 458 -9.229918561573102
497 459 2.9699368713407264
497 460 -3.1059731273668936
497 467 -7.491067004208749
497 468 -1.4438501282471718
497 469 1.918270291921675
497 470 -1.574817648789382E1
497 471 3.3731967296599312
497 472 5.429665900265978
497 482 7.927478695970616
497 483 -1.1029965332706486
497 484 -2.9938814457449645
497 487 -4.055671877371689
497 488 9.838921677375504E-1
497 489 -1.686335438182382
497 497 4.552128183284803E1
497 498 -1.9710527241045017
497 499 -1.586853757759908
497 505 -4.59850146802691
497 506 -3.1984437978702793
497 507 1.1085961944663478
498 338 -2.9458083468289162
498 339 -5.1936927923416976E-2
498 347 -2.041125669613111
498 348 -9.213937858311601
498 349 -2.998661844641725
498 367 -1.3151997709367707
498 375 2.120432884848462E-1
498 376 3.0708586340074526
498 377 -8.545126755476995E-2
498 384 2.7461147801242065
498 385 -4.550150309576581
498 386 -2.8218968929005994E-2
498 458 3.4907702046751323
498 459 -1.0684068093821251E1
498 460 4.548627288137277
498 467 -1.6771986748873247
498 468 -8.972649468903866
498 469 3.195441163328251
498 470 3.8731967296609007
498 471 -1.4812641159343482E1
498 472 -2.8655839866917643
498 482 -1.1029965332706482
498 483 5.0720173268624675
498 484 -1.5189940187743205
498 487 9.838921677375478E-1
498 488 -8.949771754062573E-1
498 489 1.092233744731756
498 497 -1.9710527241045017
498 498 4.725797431011618E1
498 499 -1.7188065608195013
498 505 -3.1984437978702798
498 506 -3.326617858794144
498 507 4.313513791372203E-1
499 338 -5.19369279234162E-2
499 339 1.2674125846788773
499 347 -3.237995471656035
499 348 -2.998661844641725
499 349 -1.0708394877091976E1
499 367 9.214721842696477E-2
499 375 3.1431116149539564
499 376 -8.5451267554773E-2
499 377 -1.933001704308829
499 384 1.2906454565668957E-1
499 385 -2.821896892900605E-2
499 386 -2.6294648751305827E-1
499 458 -3.6268064606605357
499 459 4.548627288137276
499 460 -1.2009517574377316E1
499 467 2.708453766869491
499 468 3.195441163328251
499 469 -1.0547089013934366E1
499 470 5.950499233630371
499 471 -2.865583986691764
499 472 -1.684012370526758E1
499 482 -2.9938814457449627
499 483 -1.518994018774321
499 484 5.223252039837477
499 487 -1.6863354381823816
499 488 1.0922337447317572
499 489 -6.007311929358811
499 497 -1.586853757759908
499 498 -1.7188065608195013
499 499 5.1175143953243314E1
499 505 1.1085961944663483
499 506 4.3135137913722243E-1
499 507 6.425767140922808E-1
500 375 -4.02154012216664
500 376 8.148365724171021E-1
500 377 -5.69136954781462E-1
500 378 -4.54511372550109
500 379 1.9477041598912634
500 380 -1.5733122997583497
500 458 2.327977796491802
500 459 -7.806440256693822E-1
500 460 3.2888511407624694
500 461 9.565025281205547E-1
500 462 1.894511074635419
500 463 1.8114789560761206
500 464 -5.6963898999125435
500 465 -1.2900105930199384
500 466 -3.795781456553921E-13
500 476 -8.104997524204101E-1
500 477 -9.532907369046371E-1
500 478 -1.021263558734598
500 479 -4.104842302655288
500 480 1.1011256855473854
500 481 -2.2715405023984583
500 500 2.4628785734683778E1
500 501 -1.1373052826855976
500 502 3.382363502264293
500 503 1.1705816024323709E-1
500 504 1.1632500974078372E-1
500 505 -5.85940618666554
500 506 2.9608205191791755E-2
500 507 -3.379934673563795
500 569 -1.6171479200341492
500 613 -1.2583261499404785
500 614 -1.7435932196466415
500 615 2.1616938039337502E-1
501 375 8.148365724171036E-1
501 376 -9.273214647649596
501 377 3.3823195360748097
501 378 1.9477041598912637
501 379 -2.157154076753526
501 380 3.867327403539245E-1
501 458 -7.806440256693827E-1
501 459 5.145690015962312E-1
501 460 1.8730372206473702
501 461 1.8945110746354188
501 462 7.439919688054358E-1
501 463 -1.7721305209420322
501 464 -1.290010593019938
501 465 -2.8105400013895045
501 466 -1.3605946484893161E-14
501 476 -9.532907369046371E-1
501 477 8.985762330099761E-2
501 478 -1.0682179604646738
501 479 1.101125685547385
501 480 -1.8278127433870341
501 481 9.960469426849968E-1
501 500 -1.1373052826855976
501 501 2.7539475689060737E1
501 502 -4.20990802526588
501 503 -6.936716006455138
501 504 9.653892890491202E-1
501 505 2.9608205191792168E-2
501 506 -5.969148047936183
501 507 -1.9109407906959108E-1
501 569 1.1705816024323737E-1
501 613 -1.7435932196466415
501 614 8.669124080757734E-2
501 615 -3.6217514306803067E-1
502 375 -6.566028379000353E-1
502 376 4.449815716489516
502 377 -7.395714245482313
502 378 -2.5887437208444712
502 379 9.898360562844902E-1
502 380 -2.1990298832326194
502 458 3.288851140762471
502 459 1.8730372206473707
502 460 -1.0352050767905416
502 461 1.8114789560761195
502 462 -1.7721305209420333
502 463 2.017520268541626
502 464 -3.8062575106483705E-13
502 465 -1.3556149766896897E-14
502 466 -3.9352425469028742
502 476 -1.7017080185006622E-1
502 477 -5.22070803658199E-1
502 478 1.2766824587851877
502 479 -1.3542475698010943
502 480 4.905889047846871E-1
502 481 -2.4611182686989452
502 500 3.382363502264293
502 501 -4.20990802526588
502 502 2.9454902873947766E1
502 503 -1.838611836879207E-1
502 504 -1.601420126046738
502 505 -3.3799346735637963
502 506 -1.9109407906959186E-1
502 507 -1.5018025136943457E1
502 569 2.806636739423739E-1
502 613 -6.13657669085416E-1
502 614 -9.242132855824251E-1
502 615 8.966496828229116E-1
503 461 -2.0503804400532424
503 462 -2.0564316678712684
503 463 1.8301664282246457
503 479 -1.1452644806045225
503 480 -4.541614740173492E-1
503 481 -1.0359736399253814
503 500 1.1705816024323709E-1
503 501 -6.936716006455138
503 502 -1.838611836879207E-1
503 503 3.77687741816696E1
503 504 2.7181272913012
503 505 9.398907243802308E-1
503 506 -8.38296429792597
503 507 1.1197771081249692
503 536 2.0816626767180253
503 537 1.8249453624751517
503 538 -1.4366170766498856
503 542 1.23981159543268
503 543 -1.4080003394986467
503 544 8.382032070069991E-1
503 569 -2.802982152289476E-1
503 570 -7.942987090169285E-2
503 571 -1.7518847751363886E1
503 572 -4.199568514192817
503 613 2.3956154367534843
503 614 -3.4174795469418395
503 615 -3.7623245965035446E-1
503 616 -1.998431726828099
503 617 -2.2660125690573802
503 618 1.9891458626645215
503 622 -1.2202338599111584
503 623 2.8468941089867354
503 624 -1.2631670232159755
504 461 2.7392645641315037
504 462 1.830166428224646
504 463 -2.0284298889031778
504 479 -4.141277031682139E-1
504 480 -5.102542376434264E-1
504 481 2.0453020217378662E-1
504 500 1.1632500974078372E-1
504 501 9.653892890491202E-1
504 502 -1.601420126046738
504 503 2.7181272913012
504 504 3.382575576225269E1
504 505 -6.648627453616921E-1
504 506 1.1197771081249692
504 507 -1.4521604831820571E1
504 536 1.9769470207629238
504 537 -1.4366170766498851
504 538 4.245082889513624E-1
504 542 -9.652988119737442E-1
504 543 4.021735162983537E-1
504 544 -1.8237809201561939
504 569 -9.811643049550005E-1
504 570 4.841246326630727E-1
504 571 -5.093233191701673
504 572 -1.2818610730829931E1
504 613 4.0461443102312256E-2
504 614 -8.287184423454413E-3
504 615 -2.3601424512884197
504 616 2.2082108623345037E-1
504 617 1.2759250806361255
504 618 -8.299287650247184E-1
504 622 -2.552490191175394
504 623 -1.2631670232159755
504 624 1.5291234606919157
505 364 7.109894626718389E-1
505 366 2.024930895453412
505 375 2.8779997151481655
505 376 -1.571334944815622
505 377 -9.551902478930783E-1
505 378 -1.0264314052687288E1
505 379 6.90350350595844E-1
505 380 2.6298454436387524
505 381 -6.4069092801857765
505 382 1.0706484710614632
505 383 -6.446425243666888E-2
505 384 4.500370077988678
505 385 1.7363030869020335
505 386 7.32344975452889E-2
505 455 -4.348181962057433
505 456 5.551115123125783E-16
505 457 -1.1102230246251565E-15
505 458 -5.85679775345505
505 459 -8.200513558161642E-1
505 460 -3.1053978682356864
505 461 -4.201769864092622
505 462 6.510361906074114E-2
505 463 -3.7658742991191505
505 470 1.833147791929259
505 471 -1.5670028771957796
505 472 7.471317769122632E-1
505 473 -5.646980827484738
505 474 -1.013400767123629E-2
505 475 3.262149298311913
505 482 -1.0230351175241506E1
505 483 6.035426609904734E-1
505 484 4.685963429788507
505 485 -6.8269831545343855
505 486 -2.5991756409600244
505 487 4.609505279421501
505 488 -1.4655903018784397
505 489 1.4944560378905195E-1
505 490 -1.123149601517591E1
505 491 -2.6369995032355624
505 492 5.249788317768177
505 493 -2.398430002879043
505 494 -6.82910488166395
505 495 8.074352522361979E-1
505 496 1.6507085472514014
505 497 -4.59850146802691
505 498 -3.1984437978702798
505 499 1.1085961944663483
505 500 -5.85940618666554
505 501 2.9608205191792168E-2
505 502 -3.3799346735637963
505 503 9.398907243802308E-1
505 504 -6.648627453616921E-1
505 505 9.40696182551317E1
505 506 4.369473225033182
505 507 -4.3783833893016866E-1
505 524 3.1501237401287536
505 525 -2.149347115318351E-1
505 526 5.360405956795617E-1
505 530 3.214314650435541
505 531 -2.294067539319032E-1
505 532 -4.7200491367270875E-1
505 533 -2.6605683106542894
505 534 1.0780127193693672
505 535 3.97295681698299E-11
505 536 -2.6890714031874454
505 537 1.4276945096005866
505 538 -2.0711146729460426
505 539 -2.3877681238092587
505 540 1.4660890504565858
505 541 2.0270526897841186
505 551 -9.19955520522935
505 552 9.019139455413199E-1
505 553 6.914285944657335E-1
505 557 4.081610834787254
505 558 7.63766217087086E-2
505 559 -2.2042532869574638E-1
505 569 -8.119365717369536
505 570 4.228913394650534
505 571 8.176699442962566E-2
505 572 1.9664539984915813E-1
505 606 -2.6266354791005533
505 613 -6.495275040457722
505 614 -2.5225145532736843
505 615 2.5610029236045704
505 619 5.36666764581731
505 620 2.0429916232861944
505 621 2.4555857700505377
505 622 -1.9329659281228153E1
505 623 -5.897072634884099
505 624 -3.1182772475630977E-3
506 364 -1.2830979272232021E1
506 366 8.754347655194183
506 375 -1.5713349448156209
506 376 4.7481011370352644E-1
506 377 -3.5326124910171544
506 378 6.90350350595845E-1
506 379 -1.177503383019859E1
506 380 -3.6689044571813247
506 381 1.0706484710614614
506 382 -5.319386661791199E-1
506 383 -8.85076138124583E-2
506 384 1.7363030869020337
506 385 -3.3508796618706063
506 386 5.608903602891962E-3
506 455 2.7755575615628914E-16
506 456 -1.7392727848229734
506 458 -8.200513558161651E-1
506 459 -1.630482736960431
506 460 -7.366214569410102E-1
506 461 6.51036190607402E-2
506 462 -1.58810058322346
506 463 1.058910230495853E-2
506 470 -1.567002877195781
506 471 5.797502498746505
506 472 1.5155092979660512
506 473 -1.0134007671236872E-2
506 474 -1.424882175459823
506 475 2.5762433656011663E-1
506 482 6.035426609904727E-1
506 483 -1.0262714256013943E1
506 484 -1.1982006950671381E-1
506 485 -2.6266354791005533
506 486 -2.0992381437419034
506 487 -1.4655903018784395
506 488 1.4160546680508006
506 489 3.3008016153817437
506 490 7.109894626718383E-1
506 491 3.9669090363575963
506 492 2.0249308954534144
506 493 -7.883435082419583E-1
506 494 8.074352522361992E-1
506 495 -6.969292237043391
506 496 -1.4016205303430105
506 497 -3.1984437978702793
506 498 -3.326617858794144
506 499 4.3135137913722243E-1
506 500 2.9608205191791755E-2
506 501 -5.969148047936183
506 502 -1.9109407906959186E-1
506 503 -8.38296429792597
506 504 1.1197771081249692
506 505 4.369473225033182
506 506 8.329287276344334E1
506 507 4.0821653722714824E-1
506 524 -2.1493471153183485E-1
506 525 -8.547481858370174E-1
506 526 -1.479427480808547
506 530 -2.2940675393190274E-1
506 531 -7.726223144761096E-1
506 532 1.5569271795867516
506 533 1.0780127193693672
506 534 -1.3890476751890672
506 535 -7.178202640652737E-12
506 536 1.427694509600587
506 537 -6.939709782998468E-1
506 538 1.2511870869648338
506 539 1.4660890504565856
506 540 -6.262796817856049E-1
506 541 -1.2369904089440669
506 551 9.019139455413187E-1
506 552 -9.175626978308943
506 553 -1.1674415311910742
506 557 7.637662170871061E-2
506 558 1.320147867794056
506 559 -3.27907887400021
506 569 9.398907243802299E-1
506 570 8.176699442962712E-2
506 571 1.5515726626885904
506 572 3.1708946302377536
506 606 -6.135494573325242
506 613 -2.5225145532736857
506 614 -5.81835776386259
506 615 2.0426988864187043
506 619 2.042991623286195
506 620 8.726319075133201
506 621 7.241028063316415E-1
506 622 -5.897072634884097
506 623 -1.608517274500911E1
506 624 2.750273860381689E-2
507 364 3.966909036357597
507 366 -7.883435082419612E-1
507 375 -9.551902478930786E-1
507 376 -3.532612491017155
507 377 2.1632563201590466E-1
507 378 2.629845443638751
507 379 -3.6689044571813243
507 380 -8.040117997331086
507 381 -6.44642524366695E-2
507 382 -8.850761381245667E-2
507 383 -5.09045136069165E-2
507 384 7.323449754528924E-2
507 385 5.608903602891131E-3
507 386 3.676391180631809
507 455 -5.551115123125783E-16
507 457 -1.7392727848229734
507 458 -3.105397868235687
507 459 -7.3662145694101E-1
507 460 -2.103597081626633
507 461 -3.7658742991191496
507 462 1.0589102304959413E-2
507 463 -2.689820620521937
507 470 7.471317769122611E-1
507 471 1.515509297966053
507 472 3.379296024830429
507 473 3.2621492983119125
507 474 2.576243365601162E-1
507 475 -3.050222117826711
507 482 4.685963429788509
507 483 -1.1982006950671445E-1
507 484 -1.9266211531441428E1
507 485 -2.5991756409600226
507 486 -9.860812609289288
507 487 1.4944560378905264E-1
507 488 3.3008016153817437
507 489 1.2956332330993403
507 490 -2.6369995032355638
507 491 -9.050364410246408
507 492 -2.398430002879044
507 493 5.618500813460135
507 494 1.6507085472514018
507 495 -1.4016205303430112
507 496 -4.540154012858764
507 497 1.1085961944663478
507 498 4.313513791372203E-1
507 499 6.425767140922808E-1
507 500 -3.379934673563795
507 501 -1.9109407906959108E-1
507 502 -1.5018025136943457E1
507 503 1.1197771081249692
507 504 -1.4521604831820571E1
507 505 -4.3783833893016866E-1
507 506 4.0821653722714824E-1
507 507 9.799556310612317E1
507 524 5.360405956795613E-1
507 525 -1.4794274808085441
507 526 3.359614419119209
507 530 -4.7200491367270814E-1
507 531 1.5569271795867512
507 532 3.2890860989320165
507 533 3.972970064306757E-11
507 534 -7.178424075213381E-12
507 535 -1.157033138617826
507 536 -2.0711146729460426
507 537 1.2511870869648343
507 538 4.6805461198535836E-1
507 539 2.0270526897841172
507 540 -1.236990408944067
507 541 6.396008309805947E-1
507 551 6.914285944657342E-1
507 552 -1.1674415311910775
507 553 -1.5775743750949836E1
507 557 -2.204253286957431E-1
507 558 -3.2790788740002075
507 559 -2.3246719802655402E-1
507 569 -6.648627453616913E-1
507 570 1.9664539984915685E-1
507 571 3.170894630237753
507 572 -1.0917539662636633E-1
507 606 -2.0992381437419025
507 613 2.561002923604569
507 614 2.042698886418703
507 615 -9.55096366735716
507 619 2.4555857700505372
507 620 7.241028063316421E-1
507 621 5.545392136002956
507 622 -3.1182772475609258E-3
507 623 2.7502738603816957E-2
507 624 -9.369544001359273
508 508 5.206694647858061
508 509 -1.0113513625913235
508 510 -1.8345681721018718
508 511 5.601781728313329E-1
508 512 -3.6083984374991035E-1
508 513 1.1335100446642041E-1
508 520 7.125288724280758E-1
508 521 5.220190978219854E-1
508 522 -4.5973224072611674E-2
508 523 -3.810144996644512E-1
508 527 -1.3810719244282819
508 557 -7.387555252186788E-1
508 558 9.921133652996439E-1
508 559 3.6281146988748847E-1
508 560 -2.788339967488749
508 561 2.6985413338045455E-1
508 562 1.5068119976208445
508 563 -2.0932533738037487
508 564 5.48684445447295E-1
508 565 2.4622521629368943E-1
508 638 -7.475952642005557E-2
508 639 -7.080848585130891E-1
508 641 -3.1772798729349094E-1
508 642 6.944678420109709E-1
509 508 -1.0113513625913235
509 509 5.368479116169597
509 510 2.037928138197876
509 511 -3.9208984375013123E-1
509 512 5.601781728193671E-1
509 513 -1.6566685267937684E-1
509 520 -1.22595264202887E-2
509 521 -2.8034822407233234E-1
509 522 -1.8110590217586228E-1
509 523 1.7702121463058035E-1
509 527 -5.2102987293549285E-2
509 557 9.921133652996441E-1
509 558 -8.067899935443414E-1
509 559 -2.916788879932303E-1
509 560 7.073541333806873E-1
509 561 -1.5695899674782365
509 562 -3.719082404882519E-1
509 563 4.8684445447296054E-2
509 564 -3.6870033737912857
509 565 -1.7813045456305272
509 638 9.00028872427727E-1
509 639 3.3358180815254346E-1
509 641 -5.841969244269672E-1
509 642 6.2027365810385926E-2
510 508 -1.8345681721018718
510 509 2.037928138197876
510 510 7.623617721909036
510 511 -1.6566685268145262E-1
510 512 1.1335100446405078E-1
510 513 -2.804627710615325E-1
510 520 -2.7234033018971787E-1
510 521 -5.377411708399502E-1
510 522 -2.5872331369103596E-1
510 523 1.1603647528774064
510 527 6.944678420109704E-1
510 557 9.580495651363586E-1
510 558 -8.869169832355516E-1
510 559 3.749885724831442E-1
510 560 1.5068119976208443
510 561 1.4892509284313804E-1
510 562 -4.271131018889151
510 563 -3.4901287895517763E-1
510 564 -1.7813045456305268
510 565 -5.194400939040131
510 638 2.4849300314276923E-1
510 639 2.2114900499622276
510 641 3.782476039092795E-1
510 642 -1.6244663682409999
511 508 5.601781728313329E-1
511 509 -3.9208984375013123E-1
511 510 -1.6566685268145262E-1
511 511 1.675953789756545E1
511 512 -2.014766403701838
511 513 1.219067651076184
511 514 -8.86689793494354
511 515 2.92633171358437E-1
511 516 -5.219780219757201E-1
511 524 -2.4761890264939286
511 525 8.418810096160172E-1
511 526 -1.500482200052107
511 528 4.068040328398667E-1
511 529 -6.470287757543031E-1
511 530 4.28571428501978E-1
511 531 2.500000000015311E-1
511 532 1.8749999999925606
511 533 -7.14285714394609E-1
511 534 4.583333333355629E-1
511 535 1.041666666685248
511 539 -1.210475791767893
511 540 1.0275065104154322
511 541 -8.759998139793178E-1
511 560 -3.7619708995473844
511 561 3.1249999999665484E-1
511 562 -1.5625000000278755
511 563 1.7066592263187677E-1
511 564 2.597656249992948E-1
511 565 -3.092447916710972E-1
511 660 -9.770107811495686E-2
511 661 4.2124542124044095E-2
511 662 -1.3736263736429902E-1
511 685 1.0439560439535582
511 687 2.690234924296016E-1
511 688 -1.2454212454262242E-1
511 689 -2.1062271062022042E-1
511 690 -1.467260501537796
511 691 -3.0631704409807947E-1
511 692 1.0416666666453703E-1
512 508 -3.6083984374991035E-1
512 509 5.601781728193671E-1
512 510 1.1335100446405078E-1
512 511 -2.014766403701838
512 512 1.7816174389155126E1
512 513 -2.824079018867139
512 514 2.926331713579263E-1
512 515 -9.083014175669813
512 516 1.26270604396601
512 524 1.0762560096160758
512 525 -8.866602706970186E-1
512 526 3.2224939978947265E-1
512 528 -6.470287757543032E-1
512 529 6.553992993484066E-1
512 530 2.500000000015309E-1
512 531 1.0714285713288316
512 532 -1.5625000000205116
512 533 2.2916666666778113E-1
512 534 -1.7857142858336834
512 535 -1.7857142857453039
512 539 6.785481770823308E-1
512 540 -2.1859222203156103
512 541 1.3933454240955792
512 560 8.124999999966547E-1
512 561 -2.0905423280966127
512 562 9.375000000010777E-1
512 563 -1.7773437499959038E-1
512 564 -1.141834077366416
512 565 7.324218749995023E-1
512 660 1.2545787545737774E-1
512 661 -3.711958158620641E-1
512 662 -7.907509157525852E-1
512 685 5.99587912098076E-1
512 687 4.212454212404464E-2
512 688 -2.245059876442524E-1
512 689 1.1861263736288818
512 690 -3.063170440980802E-1
512 691 -2.33379127116626
512 692 4.1575618734288927E-1
513 508 1.1335100446642041E-1
513 509 -1.6566685267937684E-1
513 510 -2.804627710615325E-1
513 511 1.219067651076184
513 512 -2.824079018867139
513 513 2.8106207276187543E1
513 514 -1.4594780219725296
513 515 1.2627060439660105
513 516 -2.079211823642053E1
513 524 -1.1524968520675873
513 525 2.0589179905660718E-1
513 526 3.8909423085263733E-1
513 528 1.0439560439535582
513 529 5.995879120980675E-1
513 530 1.8749999999925606
513 531 -1.5625000000205045
513 532 4.28571428428092E-1
513 533 5.208333333426233E-1
513 534 -1.7857142857453039
513 535 -7.142857145474494E-1
513 539 -6.341843377970484E-1
513 540 1.3933454240955796
513 541 -3.6983484772201825E-1
513 560 -1.5625000000278746
513 561 3.4226190475875645E-1
513 562 -4.382605820222196
513 563 2.1158854167152663E-1
513 564 7.324218749995021E-1
513 565 -1.3985305059682374
513 660 -6.868131868215073E-2
513 661 -3.953754578762912E-1
513 662 -1.3397054113627394E-1
513 685 1.8608891741225436E-1
513 687 -6.272893772868893E-1
513 688 1.186126373628881
513 689 1.2719287081507451E-2
513 690 5.20833333331204E-1
513 691 1.0109942825852112
513 692 -1.050872702883796
514 511 -8.86689793494354
514 512 2.926331713579263E-1
514 513 -1.4594780219725296
514 514 1.7599979067906343E1
514 515 -2.0368457434672775
514 516 3.9534490801061545E-1
514 517 5.601781728312106E-1
514 518 -3.9208984375000644E-1
514 519 1.656668526798637E-1
514 528 -3.2288783400257555
514 529 -1.3699441101085222E-1
514 530 -1.7287636408909628
514 531 7.597656250044851E-1
514 532 -8.365885416664673E-1
514 533 -3.333333333309869E-1
514 534 4.583333333325378E-1
514 535 -1.0416666666600363
514 536 -1.2104757918987723
514 537 1.0275065104225787
514 538 8.759998139750622E-1
514 566 1.70665922637781E-1
514 567 2.597656249993249E-1
514 568 3.0924479167505164E-1
514 573 -3.761970899462913
514 574 3.1250000000119327E-1
514 575 1.5624999999900544
514 678 -1.4583333333489812E-1
514 679 -1.0416666666624039E-1
514 680 6.249999999985781E-1
514 685 2.2417065371160116E-1
514 687 -1.8967070774689296
514 688 3.7784475603888854E-2
514 689 2.3989709891929445E-2
514 690 2.8420371879814157
514 691 -4.781920758275582E-1
514 692 -8.441834996337207E-1
515 511 2.92633171358437E-1
515 512 -9.083014175669813
515 513 1.2627060439660105
515 514 -2.0368457434672775
515 515 1.8124258881471665E1
515 516 -5.367920766625811E-1
515 517 -3.608398437499952E-1
515 518 5.601781728271462E-1
515 519 -1.1335100446458687E-1
515 528 -1.369944110108543E-1
515 529 -3.7125139583617894
515 530 9.941406250043776E-1
515 531 2.0566716225698597E-2
515 532 9.602864583386395E-1
515 533 2.2916666666626867E-1
515 534 -8.333333333289986E-1
515 535 1.7857142857070782
515 536 6.785481770888342E-1
515 537 -2.18592222047237
515 538 -1.3933454240936554
515 566 -1.777343750010732E-1
515 567 -1.1418340773614
515 568 -7.324218750029672E-1
515 573 8.125000000011933E-1
515 574 -2.090542328027604
515 575 -9.374999999989468E-1
515 678 -2.083333333290715E-2
515 679 -4.958333333369458E-1
515 680 1.0416666666737762
515 685 9.450807973560411E-1
515 687 2.044511422705545E-1
515 688 -2.829334753592546
515 689 -2.529613699874048E-1
515 690 -4.781920758275578E-1
515 691 3.6673244096269544
515 692 -2.0290825018314034
516 511 -5.219780219757201E-1
516 512 1.26270604396601
516 513 -2.079211823642053E1
516 514 3.9534490801061545E-1
516 515 -5.367920766625811E-1
516 516 2.9644780000956136E1
516 517 -1.1335100446485788E-1
516 518 1.6566685267860198E-1
516 519 -2.804627710520483E-1
516 528 -1.9249601295506688E-1
516 529 3.4984270212029633E-1
516 530 -9.407552083338443E-1
516 531 1.2021019345323318
516 532 7.824714781451423E-1
516 533 -5.208333333300174E-1
516 534 1.7857142857070774
516 535 -3.3333333332945825E-1
516 536 6.341843377896416E-1
516 537 -1.3933454240936554
516 538 -3.698348480189179E-1
516 566 -2.1158854165496777E-1
516 567 -7.324218750029665E-1
516 568 -1.3985305059203248
516 573 1.5624999999900546
516 574 -3.4226190476319296E-1
516 575 -4.38260582006044
516 678 3.1249999999928907E-1
516 679 5.208333333368881E-1
516 680 -1.8333333333481255E-1
516 685 -4.260206850015125
516 687 4.406563765585982E-1
516 688 -2.529613699874059E-1
516 689 -3.2861023205424624
516 690 -8.44183499633721E-1
516 691 -2.0290825018314043
516 692 4.859276539592837
517 514 5.601781728312106E-1
517 515 -3.608398437499952E-1
517 516 -1.1335100446485788E-1
517 517 5.208388482108136
517 518 -1.0104703394060979
517 519 1.8346474570850082
517 542 5.215938154605892E-1
517 543 -4.631007214442415E-2
517 544 3.8089865244463417E-1
517 545 7.129133662382339E-1
517 546 -7.484935257429072E-2
517 547 7.085482474198102E-1
517 548 -1.3823233967076693
517 549 -3.1810974843109163E-1
517 550 -6.949223195772626E-1
517 566 -2.0947781529519456
517 567 5.486335439578051E-1
517 568 -2.453162611776568E-1
517 570 -7.367160995250237E-1
517 571 9.919569397386416E-1
517 572 -3.629976907970462E-1
517 573 -2.7892561874535335
517 574 2.6998887260945326E-1
517 575 -1.5075070809326296
518 514 -3.9208984375000644E-1
518 515 5.601781728271462E-1
518 516 1.6566685267860198E-1
518 517 -1.0104703394060979
518 518 5.370128456058109
518 519 -2.0381993866641457
518 542 -2.806850721445238E-1
518 543 -1.815311845370809E-1
518 544 -1.7713706184338593E-1
518 545 -1.2349352573850392E-2
518 546 9.004133662402559E-1
518 547 -3.3311841925989133E-1
518 548 -5.248474843098175E-2
518 549 -5.854483967043603E-1
518 550 -6.248184338654614E-2
518 566 4.863354395780606E-2
518 567 -3.6885281529467475
518 568 1.7822135007420525
518 570 9.919569397386421E-1
518 571 -8.047060734848449E-1
518 572 2.91843200552385E-1
518 573 7.074888726090127E-1
518 574 -1.570506187452478
518 575 3.712131571809302E-1
519 514 1.656668526798637E-1
519 515 -1.1335100446458687E-1
519 516 -2.804627710520483E-1
519 517 1.8346474570850082
519 518 -2.0381993866641457
519 519 7.628260584869812
519 542 5.379104860120629E-1
519 543 2.588926288652595E-1
519 544 1.1608173632917997
519 545 2.7251855670765984E-1
519 546 -2.4831477663153356E-1
519 547 2.2128555021848215
519 548 -6.949223195772622E-1
519 549 -3.787020814791108E-1
519 550 -1.625877123810958
519 566 3.4992183407121275E-1
519 567 1.7822135007420514
519 568 -5.197983830209173
519 570 -9.582357860459165E-1
519 571 8.870812957881385E-1
519 572 3.764181700832079E-1
519 573 -1.5075070809326294
519 574 -1.496201761560721E-1
519 575 -4.274027895357464
520 508 7.125288724280758E-1
520 509 -1.22595264202887E-2
520 510 -2.7234033018971787E-1
520 520 2.1560560433105046E1
520 527 -2.0392836465399633E1
520 554 -1.4334570931875565
520 555 1.818165423521001E-1
520 556 4.1725941516061205E-1
520 557 8.785558509645763E-1
520 558 -1.980659178941645E-1
520 559 -4.545508785648422E-1
520 635 4.2760596135205997E-1
520 636 -6.180062447638371E-2
520 637 -5.933600626285301E-1
520 638 2.4620983867627264E-1
520 639 2.1490479877874447
520 641 -3.11800624475283E-1
520 642 -2.4921122631316215
520 643 -1.7529575592625701
520 644 1.5590031223774745E-1
520 645 1.2460561315666567
521 452 2.114584537795684E-1
521 453 2.233480383077996E-1
521 454 -5.44542353388747E-1
521 473 4.066402000145183E-1
521 474 7.725954518893097E-1
521 475 4.8591448007306354E-1
521 508 5.220190978219854E-1
521 509 -2.8034822407233234E-1
521 510 -5.377411708399502E-1
521 521 1.0608366206314912E1
521 522 3.915573895509311E-1
521 523 -4.101948246395803
521 539 -3.322316082719768
521 540 -3.818764489731651E-1
521 541 2.4810465054791067
521 551 -3.968083296551249
521 552 1.2389827506756927
521 553 9.654430143348375E-1
521 557 -3.4958778797959407
521 558 -1.4409422724434946
521 559 6.288317172316429E-1
521 563 -9.622066988640379E-1
521 564 -5.233166849347408E-1
521 565 6.22996053505851E-1
522 452 -1.516519616899704E-1
522 453 -1.075347074956369
522 454 6.334659527154989E-1
522 473 3.350954518904248E-1
522 474 -4.449765278665067E-1
522 475 -1.5519915841554064
522 508 -4.5973224072611674E-2
522 509 -1.8110590217586228E-1
522 510 -2.5872331369103596E-1
522 521 3.915573895509311E-1
522 522 8.882673613031473
522 523 -7.495534263648433E-1
522 539 -2.4125144897511638E-1
522 540 -1.8892338873983583
522 541 7.175127577470595E-1
522 551 1.238982750675692
522 552 -1.392643051184488
522 553 -4.015858785967097E-1
522 557 -1.4409422724434942
522 558 -1.6246604705926824
522 559 4.670461055012918E-1
522 563 -8.581668493585573E-2
522 564 -2.2747066988572113
522 565 1.143829386844145
523 452 -3.7676561353988347E-1
523 453 1.2669319054254247E-1
523 454 3.3492912605048825E-1
523 473 -1.837283770820511E-1
523 474 -1.551991584155406
523 475 -1.1259825921033702
523 508 -3.810144996644512E-1
523 509 1.7702121463058035E-1
523 510 1.1603647528774064
523 521 -4.101948246395803
523 522 -7.495534263648433E-1
523 523 1.1580159486064654E1
523 539 1.71839769594173
523 540 7.175127577470597E-1
523 541 -6.324607421864591
523 551 1.7201746765092059
523 552 -8.373304069183266E-1
523 553 -1.8100052542951761
523 557 1.502721644068031
523 558 9.738188676742492E-1
523 559 -1.1392664317698167
523 563 1.0216272016322536E-1
523 564 1.143829386844144
523 565 -2.6755916649595988
524 505 3.1501237401287536
524 506 -2.1493471153183485E-1
524 507 5.360405956795613E-1
524 511 -2.4761890264939286
524 512 1.0762560096160758
524 513 -1.1524968520675873
524 524 5.956511899261656E1
524 525 -1.2120752618668946
524 526 3.2346254967379737
524 527 -1.7880413174776622
524 528 -3.0588618747193603
524 529 4.4848341791483853E-1
524 530 -2.8048468250935205E1
524 531 -2.3260923190384114E-1
524 532 -2.1654849140636716
524 533 -5.725024220009698E-1
524 534 -5.982204237282254E-1
524 535 -3.4954611362716017
524 539 -2.641764955637481
524 540 -1.735283198176158
524 541 2.2734947780980614
524 554 4.811391056105278E-2
524 555 1.6840284753930728
524 556 -1.865648372702723
524 557 -3.4163586746265446
524 558 -1.3896246911024444
524 559 7.930077024680282E-1
524 560 -5.789133254795376
524 561 1.5135161124101457
524 562 2.379332784249436
524 579 -6.225006542719768
524 580 -6.382654831454079E-1
524 581 -2.27276574294715
524 584 3.856186786154173E-1
524 585 2.500000000034704E-1
524 586 2.6424356434112513
524 622 -3.7761633522122913
524 623 1.891408451824127
524 624 8.207300358137322E-1
524 641 3.5487277542297435E-1
524 642 4.9949558810301664E-1
524 643 -7.965812885543071E-1
524 644 -1.2027170309480744
524 645 -1.453732153512671
524 654 2.5729294106615903
524 655 -4.0122753768672104E-1
524 656 3.070981482409151E-1
524 682 -4.278019993424572
524 683 -4.484834179148379E-1
524 684 1.0361107454428167
524 685 -1.348610745444951
524 690 -2.8548137789859176
524 691 8.548757454197348E-1
524 692 -7.681716012344344E-1
525 505 -2.149347115318351E-1
525 506 -8.547481858370174E-1
525 507 -1.4794274808085441
525 511 8.418810096160172E-1
525 512 -8.866602706970186E-1
525 513 2.0589179905660718E-1
525 524 -1.2120752618668946
525 525 5.618397481125916E1
525 526 -3.054596600820367
525 527 2.1424777542248172E-1
525 528 4.48483417914839E-1
525 529 -2.3544394235984676
525 530 -2.3260923190384103E-1
525 531 -2.8646153942258206E1
525 532 -2.4770312763810174
525 533 -5.982204237282254E-1
525 534 2.875700675264298E-1
525 535 -1.8616497049022573
525 539 -1.735283198176158
525 540 -3.439321383684101E-1
525 541 1.4853973023691345
525 554 1.684028475393072
525 555 1.4206192899921544
525 556 1.9482526084179228
525 557 -1.3896246911024446
525 558 -5.279738456320869
525 559 3.2210544514257204
525 560 1.076016112409913
525 561 -3.972538993780174
525 562 -9.011029377791675E-1
525 579 -2.6326548314485704E-1
525 580 -2.148672081881411
525 581 -8.209919307683264E-1
525 584 2.500000000034709E-1
525 585 9.640466968627698E-1
525 586 4.047588035779274E-1
525 622 1.8914084518241263
525 623 -3.525446316301157
525 624 -6.076682621723859E-1
525 641 -3.071193682021591
525 642 -1.549886619391168
525 643 -7.652170309478404E-1
525 644 -5.685475358221379E-1
525 645 -4.2442763888544177E-1
525 654 -4.012275376867209E-1
525 655 2.051464959907264
525 656 -7.164777458777523E-1
525 682 -4.484834179148389E-1
525 683 -4.98244244454367
525 684 2.424528690378757
525 685 2.709399881085845
525 690 8.548757454197353E-1
525 691 -4.273162354117651
525 692 1.4939766614745142
526 505 5.360405956795617E-1
526 506 -1.479427480808547
526 507 3.359614419119209
526 511 -1.500482200052107
526 512 3.2224939978947265E-1
526 513 3.8909423085263733E-1
526 524 3.2346254967379737
526 525 -3.054596600820367
526 526 1.099210353360772E2
526 527 4.994955881030184E-1
526 528 -1.3486107454449496
526 529 2.7093998810858384
526 530 -2.165484914063673
526 531 -2.4770312763810107
526 532 -7.001453965625055E1
526 533 -3.495461136271605
526 534 -1.8616497049022573
526 535 -8.140924416335703E-2
526 539 2.273494778098062
526 540 1.4853973023691343
526 541 8.058237513258277E-1
526 554 -1.8656483727027218
526 555 1.9482526084179241
526 556 -1.8994078484200887
526 557 7.930077024680267E-1
526 558 3.22105445142572
526 559 -9.50358965296662
526 560 2.379332784249436
526 561 -1.421936271110557
526 562 -6.1315414002031305
526 579 -1.6477657429485733
526 580 -8.209919307800315E-1
526 581 -1.386592893945322
526 584 2.6424356434112517
526 585 4.047588035779277E-1
526 586 3.8561867829118934E-1
526 622 8.20730035813733E-1
526 623 -6.076682621723859E-1
526 624 -1.8705899407119277
526 641 -2.3125354289098117
526 642 -6.168821624380539
526 643 -1.4537321535126704
526 644 -1.0940704960386969
526 645 -1.4344716112210976
526 654 6.55083496225434E-1
526 655 7.862298673060075E-2
526 656 6.179900643834692
526 682 1.0361107454428176
526 683 2.4245286903787546
526 684 -1.0394262608565686E1
526 685 -7.947942061795937
526 690 -1.3931716012330115
526 691 2.5356433281482937
526 692 -4.207918516876477
527 508 -1.3810719244282819
527 509 -5.2102987293549285E-2
527 510 6.944678420109704E-1
527 520 -2.0392836465399633E1
527 524 -1.7880413174776622
527 525 2.1424777542248172E-1
527 526 4.994955881030184E-1
527 527 3.043267435361116E1
527 554 9.143191963702597E-1
527 555 1.4784247560235348
527 556 2.1472860628832868E-2
527 557 -3.4719551154314687
527 558 -1.6105550823432733
527 559 -2.3391941103062343E-2
527 560 -3.334296159644093
527 561 -4.900509402688471E-1
527 562 -1.6843201960350047
527 638 -4.368006244747323E-1
527 639 -2.492112263131622
527 641 1.4249399131058205
527 642 2.806380090718607
527 643 -9.787925676002773E-1
527 644 -5.281028101714352E-1
527 645 1.7800801880825934E-1
528 511 4.068040328398667E-1
528 512 -6.470287757543032E-1
528 513 1.0439560439535582
528 514 -3.2288783400257555
528 515 -1.369944110108543E-1
528 516 -1.9249601295506688E-1
528 524 -3.0588618747193603
528 525 4.48483417914839E-1
528 526 -1.3486107454449496
528 528 1.704737856827854E1
528 529 -5.254475707171842E-1
528 530 -5.113095238146642
528 531 8.75000000009405E-1
528 532 4.1666666667640223E-1
528 678 -9.991054946105421E-2
528 679 2.3647961827086567E-1
528 680 -9.706959706976197E-1
528 682 -1.2493967157696109
528 683 -3.792203181843341E-1
528 684 -5.26821631296399E-1
528 685 5.504482435168507E-1
528 687 2.1581157005750042
528 688 4.299505151293691E-1
528 689 7.623353364460411E-1
528 690 -6.970383708093104
528 691 -1.6429899725220666E-2
528 692 -7.651296673163074E-2
528 693 1.0822812452212119E-1
528 694 -2.847925759325822E-1
528 695 3.417310365328123E-1
529 511 -6.470287757543031E-1
529 512 6.553992993484066E-1
529 513 5.995879120980675E-1
529 514 -1.3699441101085222E-1
529 515 -3.7125139583617894
529 516 3.4984270212029633E-1
529 524 4.4848341791483853E-1
529 525 -2.3544394235984676
529 526 2.7093998810858384
529 528 -5.254475707171842E-1
529 529 2.523853937733446E1
529 530 8.750000000094047E-1
529 531 -1.2170238095335405E1
529 532 -2.0833333333820123
529 678 2.3647961827086597E-1
529 679 6.900104336350099E-2
529 680 7.907509157525837E-1
529 682 -3.792203181843363E-1
529 683 -5.478205071595434E-1
529 684 -3.427163011166056E-1
529 685 1.1607158011771261
529 687 4.299505151293703E-1
529 688 2.758917792522127
529 689 -1.6156069861311668
529 690 -1.6429899725221176E-2
529 691 -8.223802471696102
529 692 -2.5011843001183602
529 693 -2.8479257593258206E-1
529 694 -1.7130430564171895
529 695 9.325437085142328E-1
530 505 3.214314650435541
530 506 -2.2940675393190274E-1
530 507 -4.7200491367270814E-1
530 511 4.28571428501978E-1
530 512 2.500000000015309E-1
530 513 1.8749999999925606
530 514 -1.7287636408909628
530 515 9.941406250043776E-1
530 516 -9.407552083338443E-1
530 524 -2.8048468250935205E1
530 525 -2.3260923190384103E-1
530 526 -2.165484914063673
530 528 -5.113095238146642
530 529 8.750000000094047E-1
530 530 5.6123290443216696E1
530 531 -9.97135725270856E-1
530 532 2.592426470682551
530 533 -1.2110833668289207
530 534 -5.256335303830848E-1
530 535 3.4954611362687507
530 536 -2.564032827093297
530 537 -1.7939602041196456
530 538 -2.2907499208515802
530 548 -1.7914768917976436
530 549 3.558649563218345E-1
530 550 -4.9991462371332046E-1
530 570 -3.183914814275195
530 571 -1.3896847373505392
530 572 -8.765563792227976E-1
530 573 -5.789961258680577
530 574 1.5123958254109384
530 575 -2.380632766784146
530 584 -5.680184685428815
530 585 -7.676952650963955E-1
530 586 -8.968673499881765E-1
530 597 -8.022450717382243E-1
530 598 -1.2034217689830764
530 599 1.4543418419452
530 616 5.429782218985725E-2
530 617 1.6832721530057335
530 618 1.8666053147070292
530 622 -3.606653060480515
530 623 1.9063736572902292
530 624 -8.650353536366682E-1
530 682 -3.0059523804807414E-1
530 683 -4.375000000047071E-1
530 684 -1.0416666667082511E-1
530 685 2.083333333416482E-1
531 505 -2.294067539319032E-1
531 506 -7.726223144761096E-1
531 507 1.5569271795867512
531 511 2.500000000015311E-1
531 512 1.0714285713288316
531 513 -1.5625000000205045
531 514 7.597656250044851E-1
531 515 2.0566716225698597E-2
531 516 1.2021019345323318
531 524 -2.3260923190384114E-1
531 525 -2.8646153942258206E1
531 526 -2.4770312763810107
531 528 8.75000000009405E-1
531 529 -1.2170238095335405E1
531 530 -9.97135725270856E-1
531 531 5.907860134450938E1
531 532 4.298533662199191
531 533 -5.25633530383085E-1
531 534 -6.623714252069415E-1
531 535 1.8616497049302816
531 536 -1.7939602041196459
531 537 -3.904429086673419E-1
531 538 -1.4654953840388731
531 548 2.1523995632260468E-1
531 549 -3.074469798643104
531 550 1.5508421821342155
531 570 -1.3896847373505385
531 571 -5.345768943902776
531 572 -3.408137692049271
531 573 1.0748958254113792
531 574 -3.972382315684391
531 575 9.012456566867746E-1
531 584 -3.9269526509727615E-1
531 585 -2.069023987673255
531 586 1.8936835232960733E-1
531 597 -7.65921768983517E-1
531 598 -5.821102339592695E-1
531 599 4.303004557762188E-1
531 616 1.6832721530057335
531 617 1.4324071758812689
531 618 -1.9464312590573967
531 622 1.906373657290229
531 623 -2.8596817470025826
531 624 5.799360071965525E-1
531 682 -4.375000000047053E-1
531 683 -1.0577380951357924
531 684 -6.696428571166304E-1
531 685 -1.0416666667082386
532 505 -4.7200491367270875E-1
532 506 1.5569271795867516
532 507 3.2890860989320165
532 511 1.8749999999925606
532 512 -1.5625000000205116
532 513 4.28571428428092E-1
532 514 -8.365885416664673E-1
532 515 9.602864583386395E-1
532 516 7.824714781451423E-1
532 524 -2.1654849140636716
532 525 -2.4770312763810174
532 526 -7.001453965625055E1
532 528 4.1666666667640223E-1
532 529 -2.0833333333820123
532 530 2.592426470682551
532 531 4.298533662199191
532 532 9.893696163758611E1
532 533 3.495461136268753
532 534 1.8616497049302816
532 535 -5.3527279789959E-1
532 536 -2.29074992085158
532 537 -1.4654953840388736
532 538 7.983021792855773E-1
532 548 -4.999146237133191E-1
532 549 2.313490991665033
532 550 -6.179429477749461
532 570 -8.765563792227988E-1
532 571 -3.408137692049271
532 572 -9.219238092134875
532 573 -2.3806327667841463
532 574 1.4220789900237771
532 575 -6.134366633940886
532 584 -1.1052006833229333
532 585 1.8936835232938054E-1
532 586 -1.9197950306548468
532 597 1.4543418419452003
532 598 1.099943312909977
532 599 -1.4404029224740948
532 616 1.8666053147070278
532 617 -1.9464312590573978
532 618 -1.885528954879667
532 622 -8.650353536366668E-1
532 623 5.799360071965536E-1
532 624 -1.5806287801868542
532 682 -2.0833333333820186E-1
532 683 -1.3392857142505026
532 684 -3.880952380366991E-1
532 685 -4.93809523816938
533 455 -4.0328501845335074E-1
533 456 -2.2754710921482763E-1
533 457 -8.912944696160605E-1
533 473 8.634562750607623E-1
533 474 3.117555395812053E-1
533 475 8.912944696120985E-1
533 505 -2.6605683106542894
533 506 1.0780127193693672
533 507 3.972970064306757E-11
533 511 -7.14285714394609E-1
533 512 2.2916666666778113E-1
533 513 5.208333333426233E-1
533 514 -3.333333333309869E-1
533 515 2.2916666666626867E-1
533 516 -5.208333333300174E-1
533 524 -5.725024220009698E-1
533 525 -5.982204237282254E-1
533 526 -3.495461136271605
533 530 -1.2110833668289207
533 531 -5.25633530383085E-1
533 532 3.495461136268753
533 533 4.2944611464260525E1
533 534 3.3239170717271574E-2
533 535 6.674045696039099E-1
533 536 -1.836151125526328E1
533 537 8.731554972668062E-2
533 538 2.578042964078217
533 539 -1.9551498318394895E1
533 540 -6.172552494024358E-1
533 541 -3.24544753372765
534 455 -5.817137758833266E-1
534 456 -1.5165949926359272
534 457 -1.8616497049870255
534 473 8.258887291446707E-2
534 474 2.411301266854117E-1
534 475 1.8616497049162253
534 505 1.0780127193693672
534 506 -1.3890476751890672
534 507 -7.178424075213381E-12
534 511 4.583333333355629E-1
534 512 -1.7857142858336834
534 513 -1.7857142857453039
534 514 4.583333333325378E-1
534 515 -8.333333333289986E-1
534 516 1.7857142857070774
534 524 -5.982204237282254E-1
534 525 2.875700675264298E-1
534 526 -1.8616497049022573
534 530 -5.256335303830848E-1
534 531 -6.623714252069415E-1
534 532 1.8616497049302816
534 533 3.3239170717271574E-2
534 534 4.301832038864102E1
534 535 2.1610821823957496
534 536 8.73155497256374E-2
534 537 -1.8185075806053405E1
534 538 -1.3030993808644316
534 539 -4.922552494002058E-1
534 540 -1.917488306460486E1
534 541 -8.579828014431368E-1
535 455 -1.4121278029712925
535 456 -1.861649704987026
535 457 -5.485371462335664E-1
535 473 1.4121278029296187
535 474 1.8616497049162248
535 475 3.1559611519548963E-1
535 505 3.97295681698299E-11
535 506 -7.178202640652737E-12
535 507 -1.157033138617826
535 511 1.041666666685248
535 512 -1.7857142857453039
535 513 -7.142857145474494E-1
535 514 -1.0416666666600363
535 515 1.7857142857070782
535 516 -3.3333333332945825E-1
535 524 -3.4954611362716017
535 525 -1.8616497049022573
535 526 -8.140924416335703E-2
535 530 3.4954611362687507
535 531 1.8616497049302816
535 532 -5.3527279789959E-1
535 533 6.674045696039099E-1
535 534 2.1610821823957496
535 535 9.544145933871997E1
535 536 1.536376297418072
535 537 -1.303099380864432
535 538 -4.58821928504563E1
535 539 -2.2037808670423997
535 540 -8.579828014431358E-1
535 541 -4.650499122866795E1
536 455 -1.2475653045247574
536 456 -6.313217997971138E-1
536 457 8.912944696051308E-1
536 461 -2.736697437403331
536 462 -1.1813475326110314
536 463 -7.250853432853595E-1
536 503 2.0816626767180253
536 504 1.9769470207629238
536 505 -2.6890714031874454
536 506 1.427694509600587
536 507 -2.0711146729460426
536 514 -1.2104757918987723
536 515 6.785481770888342E-1
536 516 6.341843377896416E-1
536 530 -2.564032827093297
536 531 -1.7939602041196459
536 532 -2.29074992085158
536 533 -1.836151125526328E1
536 534 8.73155497256374E-2
536 535 1.536376297418072
536 536 3.81844214406355E1
536 537 5.674295900895631E-1
536 538 -1.2180739140980285E-1
536 542 -3.2931385420321986
536 543 -2.4263720162231514E-1
536 544 -1.703641680360945
536 566 -5.728182116040275
536 567 1.1686927990873457
536 568 -2.2094763427283297
536 569 3.5114928127407157
536 570 -5.806865799728921
536 571 -1.7008743153009873
536 572 3.2498029627394662
536 573 1.941626223796047
536 574 -4.612022488588985E-1
536 575 8.332702632668251E-1
537 455 -8.396551331301643E-1
537 456 -1.2287928061383826
537 457 1.8616497049223324
537 461 -1.6813475326120741
537 462 -5.713127333018143
537 463 -2.2706890724521043
537 503 1.8249453624751517
537 504 -1.4366170766498851
537 505 1.4276945096005866
537 506 -6.939709782998468E-1
537 507 1.2511870869648343
537 514 1.0275065104225787
537 515 -2.18592222047237
537 516 -1.3933454240936554
537 530 -1.7939602041196456
537 531 -3.904429086673419E-1
537 532 -1.4654953840388736
537 533 8.731554972668062E-2
537 534 -1.8185075806053405E1
537 535 -1.303099380864432
537 536 5.674295900895631E-1
537 537 3.8171447349038054E1
537 538 8.51043755275324E-1
537 542 -3.8326220162300867E-1
537 543 -1.8692778141244457
537 544 -7.136605969525864E-1
537 566 1.6686927990873464
537 567 -5.572448341598544
537 568 2.0612409434684897
537 569 2.0816626767180257
537 570 -1.7008743153009875
537 571 -2.9520063117176125
537 572 6.902441032876995E-1
537 573 -4.6120224885889904E-1
537 574 -1.2053281914231313
537 575 1.8675413411328563
538 455 1.4121278029350477
538 456 1.8616497049223333
538 457 -7.075308887571927E-1
538 461 -1.171513914696634
538 462 -2.2706890724521047
538 463 -2.498101590069157
538 503 -1.4366170766498856
538 504 4.245082889513624E-1
538 505 -2.0711146729460426
538 506 1.2511870869648338
538 507 4.6805461198535836E-1
538 514 8.759998139750622E-1
538 515 -1.3933454240936554
538 516 -3.698348480189179E-1
538 530 -2.2907499208515802
538 531 -1.4654953840388731
538 532 7.983021792855773E-1
538 533 2.578042964078217
538 534 -1.3030993808644316
538 535 -4.58821928504563E1
538 536 -1.2180739140980285E-1
538 537 8.51043755275324E-1
538 538 6.649765701465527E1
538 542 -2.4662904898762825
538 543 -7.136605969525862E-1
538 544 -6.2835909007945485
538 566 -2.8047144379771995
538 567 2.061240943468488
538 568 -7.31243140151026
538 569 1.9769470207629247
538 570 3.2498029627394636
538 571 6.902441032876996E-1
538 572 -5.80578911480501
538 573 8.332702632668262E-1
538 574 1.8675413411328567
538 575 6.70949499533784E-1
539 473 -4.414824842906887
539 474 -1.986133656401904
539 475 -1.5171079284610495E-1
539 505 -2.3877681238092587
539 506 1.4660890504565856
539 507 2.0270526897841172
539 511 -1.210475791767893
539 512 6.785481770823308E-1
539 513 -6.341843377970484E-1
539 521 -3.322316082719768
539 522 -2.4125144897511638E-1
539 523 1.71839769594173
539 524 -2.641764955637481
539 525 -1.735283198176158
539 526 2.273494778098062
539 533 -1.9551498318394895E1
539 534 -4.922552494002058E-1
539 535 -2.2037808670423997
539 539 3.9202461279917046E1
539 540 1.3423161931632859
539 541 7.412603952213437E-1
539 551 3.5248745093785367
539 552 1.953784179678252
539 553 -1.9135251518629373
539 557 -5.4128677963221
539 558 -1.6944635876125909
539 559 -3.2339295592341495
539 560 1.9419120082680945
539 561 -4.610676910407039E-1
539 562 -8.324503449064988E-1
539 563 -5.727731886005376
539 564 1.1697172312262258
539 565 2.2093754946438855
540 473 -2.5694669897347264
540 474 -6.937030708945851
540 475 3.930692174184999E-1
540 505 1.4660890504565858
540 506 -6.262796817856049E-1
540 507 -1.236990408944067
540 511 1.0275065104154322
540 512 -2.1859222203156103
540 513 1.3933454240955796
540 521 -3.818764489731651E-1
540 522 -1.8892338873983583
540 523 7.175127577470597E-1
540 524 -1.735283198176158
540 525 -3.439321383684101E-1
540 526 1.4853973023691343
540 533 -6.172552494024358E-1
540 534 -1.917488306460486E1
540 535 -8.579828014431358E-1
540 539 1.3423161931632859
540 540 3.8921651505014324E1
540 541 1.3383044694944255
540 551 1.9537841796782554
540 552 1.7818074587582675
540 553 1.430741712600958
540 557 -1.6944635876125935
540 558 -2.7705757094777503
540 559 -7.361925043079958E-1
540 560 -4.610676910407042E-1
540 561 -1.2050409521343481
540 562 -1.8666183726686065
540 563 1.6697172312262267
540 564 -5.570560600741799
540 565 -2.0605867963618514
541 473 -2.261155547648315E-1
541 474 3.9306921741850115E-1
541 475 -3.335174550045443
541 505 2.0270526897841186
541 506 -1.2369904089440669
541 507 6.396008309805947E-1
541 511 -8.759998139793178E-1
541 512 1.3933454240955792
541 513 -3.6983484772201825E-1
541 521 2.4810465054791067
541 522 7.175127577470595E-1
541 523 -6.324607421864591
541 524 2.2734947780980614
541 525 1.4853973023691345
541 526 8.058237513258277E-1
541 533 -3.24544753372765
541 534 -8.579828014431368E-1
541 535 -4.650499122866795E1
541 539 7.412603952213437E-1
541 540 1.3383044694944255
541 541 6.705543324312784E1
541 551 -1.91352515186294
541 552 1.4307417126009585
541 553 3.4605559975722483E-1
541 557 -3.2339295592341473
541 558 -7.361925043079967E-1
541 559 -5.675675473464004
541 560 -8.324503449064989E-1
541 561 -1.866618372668607
541 562 6.714006981065347E-1
541 563 2.8046135898927567
541 564 -2.060586796361851
541 565 -7.3080306015340115
542 461 3.913368783272161E-1
542 462 7.746051527248545E-1
542 463 -5.026619870359385E-1
542 479 2.1227952522056945E-1
542 480 2.3368364259274263E-1
542 481 5.513780704916323E-1
542 503 1.23981159543268
542 504 -9.652988119737442E-1
542 517 5.215938154605892E-1
542 518 -2.806850721445238E-1
542 519 5.379104860120629E-1
542 536 -3.2931385420321986
542 537 -3.8326220162300867E-1
542 538 -2.4662904898762825
542 542 1.0600745035505742E1
542 543 3.770172688304163E-1
542 544 4.092702683808855
542 566 -9.642679476370842E-1
542 567 -5.239454679985656E-1
542 568 -6.237446047621892E-1
542 569 -4.000054642816558
542 570 -3.4684941220282774
542 571 -1.4372249178145955
542 572 -6.239953466643953E-1
543 461 3.371051527244572E-1
543 462 -4.49521470893088E-1
543 463 1.5479652410757785
543 479 -1.4131635740805057E-1
543 480 -1.0720094303295937
543 481 -6.318225473105199E-1
543 503 -1.4080003394986467
543 504 4.021735162983537E-1
543 517 -4.631007214442415E-2
543 518 -1.815311845370809E-1
543 519 2.588926288652595E-1
543 536 -2.4263720162231514E-1
543 537 -1.8692778141244457
543 538 -7.136605969525862E-1
543 542 3.770172688304163E-1
543 543 8.867102648861293
543 544 7.472406922247297E-1
543 566 -8.644546799816866E-2
543 567 -2.2767679476447507
543 568 -1.1445779380799568
543 569 1.2398115954326798
543 570 -1.437224917814595
543 571 -1.6099944618336872
543 572 -4.6621099612105826E-1
544 461 1.6698087013178242E-1
544 462 1.5479652410757776
544 463 -1.1287607962721071
544 479 3.7813275697308757E-1
544 480 -1.263645094102091E-1
544 481 3.346080808992678E-1
544 503 8.382032070069991E-1
544 504 -1.8237809201561939
544 517 3.8089865244463417E-1
544 518 -1.7713706184338593E-1
544 519 1.1608173632917997
544 536 -1.703641680360945
544 537 -7.136605969525864E-1
544 538 -6.2835909007945485
544 542 4.092702683808855
544 543 7.472406922247297E-1
544 544 1.1546632205216412E1
544 566 -1.029112714321691E-1
544 567 -1.1445779380799554
544 568 -2.677915263078311
544 569 -1.719745311759335
544 570 -1.4924166998059103
544 571 -9.716690340213692E-1
544 572 -1.1280097691063191
545 517 7.129133662382339E-1
545 518 -1.2349352573850392E-2
545 519 2.7251855670765984E-1
545 545 2.1595514713936073E1
545 546 2.4806935387803652E-1
545 547 -2.149925403853935
545 548 -2.0428557435335804E1
545 549 -3.1300874683499985E-1
545 550 2.493157443366152
545 570 8.787843719534165E-1
545 571 -1.9806860655790037E-1
545 572 4.5486587504178344E-1
545 588 4.277200871175217E-1
545 589 -6.300874683347324E-2
545 590 5.936089151093711E-1
545 597 -1.752781562291207
545 598 1.5650437341749993E-1
545 599 -1.2465787216830742
545 616 -1.4335935416182282
545 617 1.8186172550468746E-1
545 618 -4.1764666468795714E-1
546 517 -7.484935257429072E-2
546 518 9.004133662402559E-1
546 519 -2.4831477663153356E-1
546 545 2.4806935387803652E-1
546 546 2.1982863569857724E1
546 547 -5.06666740569935
546 548 -4.380087468358808E-1
546 549 -2.0483182140426727E1
546 550 3.6500728902990027
546 570 -1.9806860655790026E-1
546 571 5.836327838123994E-1
546 572 6.578687173415894E-1
546 588 6.1991253167407334E-2
546 589 8.444072403485425E-1
546 590 -5.198239150170831E-1
546 597 2.190043734179404E-1
546 598 -1.725469209745746
546 599 5.559159357920231E-1
546 616 1.818617255046875E-1
546 617 -2.1026656100864454
546 618 9.709485539153525E-1
547 517 7.085482474198102E-1
547 518 -3.3311841925989133E-1
547 519 2.2128555021848215
547 545 -2.149925403853935
547 546 -5.06666740569935
547 547 5.095771580002393E1
547 548 2.4931574433661523
547 549 2.6084062236249967
547 550 -4.967046386383087E1
547 570 9.297530071063114E-1
547 571 1.5515333948504455
547 572 2.5677928695771786
547 588 1.1872178304484277E-1
547 589 -3.7182192585193363E-1
547 590 1.9989180839821887
547 597 -1.2465787216830755
547 598 -1.1372692134173612E-1
547 599 -5.0824187679823405
547 616 -8.536763554001068E-1
547 617 1.72539505367747
547 618 -2.9843996239548973
548 517 -1.3823233967076693
548 518 -5.248474843098175E-2
548 519 -6.949223195772622E-1
548 530 -1.7914768917976436
548 531 2.1523995632260468E-1
548 532 -4.999146237133191E-1
548 545 -2.0428557435335804E1
548 546 -4.380087468358808E-1
548 547 2.4931574433661523
548 548 3.0476648144541095E1
548 549 1.4314582484474285
548 550 -2.807563109083998
548 570 -3.474980609150766
548 571 -1.6104136494586863
548 572 2.32549332630113E-2
548 573 -3.3371626740564495
548 574 -4.908939241378742E-1
548 575 1.685422458314326
548 597 -9.809458228075209E-1
548 598 -5.335393607220018E-1
548 599 -1.780826745130002E-1
548 616 9.187986853147617E-1
548 617 1.4786422248153914
548 618 -2.135210805591014E-2
549 517 -3.1810974843109163E-1
549 518 -5.854483967043603E-1
549 519 -3.787020814791108E-1
549 530 3.558649563218345E-1
549 531 -3.074469798643104
549 532 2.313490991665033
549 545 -3.1300874683499985E-1
549 546 -2.0483182140426727E1
549 547 2.6084062236249967
549 548 1.4314582484474285
549 549 3.1564524845355656E1
549 550 -5.355006008397776
549 570 -1.610413649458688
549 571 -6.26659525107847
549 572 2.73879872335072E-1
549 573 -9.908939241378742E-1
549 574 -2.004735977164426
549 575 1.1245250224015435
549 597 -3.353936072200253E-2
549 598 7.756807232541061E-1
549 599 -3.3512425404475055E-1
549 616 1.478642224815393
549 617 7.422599540732494E-2
549 618 -2.514697661050074E-1
550 517 -6.949223195772626E-1
550 518 -6.248184338654614E-2
550 519 -1.625877123810958
550 530 -4.9991462371332046E-1
550 531 1.5508421821342155
550 532 -6.179429477749461
550 545 2.493157443366152
550 546 3.6500728902990027
550 547 -4.967046386383087E1
550 548 -2.807563109083998
550 549 -5.355006008397776
550 550 6.220527227344965E1
550 570 2.32549332630135E-2
550 571 2.738798723350726E-1
550 572 -5.280511346760894
550 573 1.685422458314326
550 574 5.292869271657897E-1
550 575 -3.8749645694829136
550 597 -1.78082674512999E-1
550 598 -3.351242540447499E-1
550 599 1.8493814841954728
550 616 -2.1352108055910663E-2
550 617 -2.514697661050081E-1
550 618 2.576592623989972
551 452 -1.6307752254601051
551 453 -1.1437760543420332
551 454 1.281701723400111
551 473 -3.5474047235776873
551 474 -1.910654388985841
551 475 -2.760163931196108
551 482 -1.5253436603199435
551 483 1.2938058758978116E-1
551 484 -3.1107838105718144E-1
551 485 -6.05240944043076
551 486 -1.0447444777726145
551 505 -9.19955520522935
551 506 9.019139455413187E-1
551 507 6.914285944657342E-1
551 521 -3.968083296551249
551 522 1.238982750675692
551 523 1.7201746765092059
551 539 3.5248745093785367
551 540 1.9537841796782554
551 541 -1.91352515186294
551 551 3.412709667129426E1
551 552 -3.123112160776872E-1
551 553 1.0202639266670621
551 554 -1.6332166062241573
551 555 -1.9813972868593714
551 556 -7.890578008011775E-1
551 557 -1.2780857771280921E1
551 558 -6.986973322491008E-2
551 559 -4.404700571751211E-1
551 606 2.297226633619701
551 622 2.685674748401394
551 623 -1.103279417614906
551 624 2.5454708788230263
552 452 -1.1437760543420328
552 453 -4.5506572840814163E-1
552 454 1.0364697285992621
552 473 -1.91065438898584
552 474 -1.8904593341835347
552 475 -1.8244662746312974
552 482 1.2938058758977888E-1
552 483 -6.54866892802106
552 484 1.6578745872804057E-1
552 485 2.2972266336197014
552 486 4.1945332191249596E-1
552 505 9.019139455413199E-1
552 506 -9.175626978308943
552 507 -1.1674415311910775
552 521 1.2389827506756927
552 522 -1.392643051184488
552 523 -8.373304069183266E-1
552 539 1.953784179678252
552 540 1.7818074587582675
552 541 1.4307417126009585
552 551 -3.123112160776872E-1
552 552 3.725086561854624E1
552 553 -2.575506903789524
552 554 -1.9813972868593714
552 555 -2.2235503745659115
552 556 -1.9787199366650372
552 557 -6.986973322490742E-2
552 558 -1.692455722940057E1
552 559 4.10995997357607
552 606 -3.3269160857296467
552 622 -1.1032794176149054
552 623 2.9048146324977977
552 624 1.2210528577784359
553 452 4.1391116837234965E-1
553 453 5.110531610777579E-1
553 454 2.0092620509947745E-1
553 473 -2.760163931196108
553 474 -1.8244662746312976
553 475 -1.8590695473547139
553 482 -1.4031435199745634E-1
553 483 -9.773576550451946E-1
553 484 -1.405365545223189
553 485 -5.640387762175547E-2
553 486 -2.2851766186825833
553 505 6.914285944657335E-1
553 506 -1.1674415311910742
553 507 -1.5775743750949836E1
553 521 9.654430143348375E-1
553 522 -4.015858785967097E-1
553 523 -1.8100052542951761
553 539 -1.9135251518629373
553 540 1.430741712600958
553 541 3.4605559975722483E-1
553 551 1.0202639266670621
553 552 -2.575506903789524
553 553 3.461513533582181E1
553 554 -2.0509016768653293E-1
553 555 -1.2713193512134167
553 556 -7.929264964673962E-1
553 557 -5.61020102298227E-1
553 558 5.001706996561217
553 559 -1.2854269239027758E1
553 606 5.312286644884928E-2
553 622 2.545470878823027
553 623 1.2210528577784356
553 624 1.6204393113221502
554 485 -3.2177148579876463E-1
554 486 1.1901670049781643E-1
554 520 -1.4334570931875565
554 524 4.811391056105278E-2
554 525 1.684028475393072
554 526 -1.8656483727027218
554 527 9.143191963702597E-1
554 551 -1.6332166062241573
554 552 -1.9813972868593714
554 553 -2.0509016768653293E-1
554 554 3.0164286643192987E1
554 555 2.804513344493883
554 556 3.403718226547003
554 557 -1.1903838893194928E1
554 558 -1.9182262413551956
554 559 -2.682054912580412
554 579 8.637451156500152E-1
554 580 -1.3525095662834994
554 581 2.099382467499999
554 600 -7.349410558457433
554 601 -1.442002217750468E-1
554 602 -5.007959837740255E-1
554 606 1.3493900303539588
554 622 -5.299036427428295
554 623 -9.676181199365583E-2
554 624 -1.9234275522430644E-1
554 635 8.571599816969012E-1
554 636 -3.913451285315258E-1
554 637 -1.0025887215642668
554 638 1.818165423521002E-1
554 639 8.530039434839862E-1
554 641 1.4784247560235317
554 642 2.147286062882955E-2
554 643 -4.906893783180086
554 644 -1.61373289181825
554 645 -4.8073285125369306E-2
555 485 1.3493900303539603
555 486 5.341104395475734E-1
555 520 1.818165423521001E-1
555 524 1.6840284753930728
555 525 1.4206192899921544
555 526 1.9482526084179241
555 527 1.4784247560235348
555 551 -1.9813972868593714
555 552 -2.2235503745659115
555 553 -1.2713193512134167
555 554 2.804513344493883
555 555 2.8623553022956752E1
555 556 3.831186187160764
555 557 -1.9182262413551976
555 558 -7.352856855472607
555 559 -5.60692619079604E-1
555 579 -1.3525095662834998
555 580 1.7630396391688887
555 581 2.7847003428107038
555 600 -1.442002217750482E-1
555 601 -1.792605236798753
555 602 9.699289976169592E-2
555 606 -3.274888763136306
555 622 -9.676181199365681E-2
555 623 -6.2020394649074975
555 624 -3.9465338572630486
555 635 -3.913451285315261E-1
555 636 4.345701706032552E-1
555 637 -1.3018476475290945
555 638 -2.103764594330494
555 639 -1.725911589049703
555 641 6.168557682395176E-2
555 642 2.514327816573782E-1
555 643 -1.61373289181825
555 644 -9.353762410333436
555 645 -6.403701952211731E-1
556 485 4.741249431773492E-1
556 486 1.0790914888952463E-1
556 520 4.1725941516061205E-1
556 524 -1.865648372702723
556 525 1.9482526084179228
556 526 -1.8994078484200887
556 527 2.1472860628832868E-2
556 551 -7.890578008011775E-1
556 552 -1.9787199366650372
556 553 -7.929264964673962E-1
556 554 3.403718226547003
556 555 3.831186187160764
556 556 2.9104206686776934E1
556 557 -3.5559448394167985
556 558 -4.722272860102372E-1
556 559 -8.527223491705676
556 579 2.0993824674999986
556 580 2.7847003428107033
556 581 1.7169728861674947
556 600 5.18916177663991E-1
556 601 4.9661823050287775E-2
556 602 -2.4816296351136615
556 606 -4.3822224619560224E-1
556 622 -1.9234275522430647E-1
556 623 -3.9465338572630486
556 624 -1.2237431161346194E1
556 635 -4.8380703740741426E-1
556 636 -4.179802948552834E-1
556 637 2.6976939300366025
556 638 -9.711799268866721E-1
556 639 -2.9832089595751348
556 641 2.514327816573758E-1
556 642 2.5702597182797544
556 643 -4.807328512536837E-2
556 644 -6.403701952211729E-1
556 645 -7.275214777522164
557 505 4.081610834787254
557 506 7.637662170871061E-2
557 507 -2.204253286957431E-1
557 508 -7.387555252186788E-1
557 509 9.921133652996441E-1
557 510 9.580495651363586E-1
557 520 8.785558509645763E-1
557 521 -3.4958778797959407
557 522 -1.4409422724434942
557 523 1.502721644068031
557 524 -3.4163586746265446
557 525 -1.3896246911024446
557 526 7.930077024680267E-1
557 527 -3.4719551154314687
557 539 -5.4128677963221
557 540 -1.6944635876125935
557 541 -3.2339295592341473
557 551 -1.2780857771280921E1
557 552 -6.986973322490742E-2
557 553 -5.61020102298227E-1
557 554 -1.1903838893194928E1
557 555 -1.9182262413551976
557 556 -3.5559448394167985
557 557 3.878117809150601E1
557 558 3.1785604215100656
557 559 4.212819556904561
557 560 -1.1848326740289823
557 561 1.6128119800374299
557 562 -2.6893638032014855E-1
557 563 -2.449535865750802
557 564 1.0617105735531849
557 565 -1.263941159018271
557 622 1.1135354183925235
557 623 1.4001745638670362
557 624 2.5902297702000316
557 638 -1.9806591789416453E-1
557 639 -9.292389286906164E-1
557 641 -1.610555082343271
557 642 -2.3391941103057142E-2
558 505 7.63766217087086E-2
558 506 1.320147867794056
558 507 -3.2790788740002075
558 508 9.921133652996439E-1
558 509 -8.067899935443414E-1
558 510 -8.869169832355516E-1
558 520 -1.980659178941645E-1
558 521 -1.4409422724434946
558 522 -1.6246604705926824
558 523 9.738188676742492E-1
558 524 -1.3896246911024444
558 525 -5.279738456320869
558 526 3.22105445142572
558 527 -1.6105550823432733
558 539 -1.6944635876125909
558 540 -2.7705757094777503
558 541 -7.361925043079967E-1
558 551 -6.986973322491008E-2
558 552 -1.692455722940057E1
558 553 5.001706996561217
558 554 -1.9182262413551956
558 555 -7.352856855472607
558 556 -4.722272860102372E-1
558 557 3.1785604215100656
558 558 3.874679989117705E1
558 559 -3.8845446439927747
558 560 1.612811980037431
558 561 -2.6900354526126176
558 562 1.9676828302249911
558 563 1.0617105735531855
558 564 -5.445707518702771E-1
558 565 -2.6343427147440873E-1
558 622 1.400174563867036
558 623 3.5995870639807324
558 624 1.797366292781994E-1
558 638 5.84251270202553E-1
558 639 -1.5477012865520596
558 641 -6.257001173862677
558 642 -2.739039255911412E-1
559 505 -2.2042532869574638E-1
559 506 -3.27907887400021
559 507 -2.3246719802655402E-1
559 508 3.6281146988748847E-1
559 509 -2.916788879932303E-1
559 510 3.749885724831442E-1
559 520 -4.545508785648422E-1
559 521 6.288317172316429E-1
559 522 4.670461055012918E-1
559 523 -1.1392664317698167
559 524 7.930077024680282E-1
559 525 3.2210544514257204
559 526 -9.50358965296662
559 527 -2.3391941103062343E-2
559 539 -3.2339295592341495
559 540 -7.361925043079958E-1
559 541 -5.675675473464004
559 551 -4.404700571751211E-1
559 552 4.10995997357607
559 553 -1.2854269239027758E1
559 554 -2.682054912580412
559 555 -5.60692619079604E-1
559 556 -8.527223491705676
559 557 4.212819556904561
559 558 -3.8845446439927747
559 559 3.765441547062822E1
559 560 -2.6893638032014766E-1
559 561 1.9676828302249905
559 562 -1.2547499203973613
559 563 -1.2639411590182705
559 564 -2.634342714744086E-1
559 565 -4.522433119511489E-1
559 622 2.5902297702000308
559 623 1.7973662927819986E-1
559 624 4.3191589281416585
559 638 -6.559542635669071E-1
559 639 2.566812716667192
559 641 -2.739039255911434E-1
559 642 -5.275890968611277
560 508 -2.788339967488749
560 509 7.073541333806873E-1
560 510 1.5068119976208443
560 511 -3.7619708995473844
560 512 8.124999999966547E-1
560 513 -1.5625000000278746
560 524 -5.789133254795376
560 525 1.076016112409913
560 526 2.379332784249436
560 527 -3.334296159644093
560 539 1.9419120082680945
560 540 -4.610676910407042E-1
560 541 -8.324503449064989E-1
560 557 -1.1848326740289823
560 558 1.612811980037431
560 559 -2.6893638032014766E-1
560 560 2.0424533568778774E1
560 561 -1.0994812845747015
560 562 -1.5118453724558072
560 563 -5.507872621542281
560 564 -1.6580823099404345
560 565 1.9739075118750518
560 641 -9.900509402688475E-1
560 642 -1.684320196035005
561 508 2.6985413338045455E-1
561 509 -1.5695899674782365
561 510 1.4892509284313804E-1
561 511 3.1249999999665484E-1
561 512 -2.0905423280966127
561 513 3.4226190475875645E-1
561 524 1.5135161124101457
561 525 -3.972538993780174
561 526 -1.421936271110557
561 527 -4.900509402688471E-1
561 539 -4.610676910407039E-1
561 540 -1.2050409521343481
561 541 -1.866618372668607
561 557 1.6128119800374299
561 558 -2.6900354526126176
561 559 1.9676828302249905
561 560 -1.0994812845747015
561 561 1.6412335155382387E1
561 562 9.464619689969898E-1
561 563 -1.658082309940435
561 564 -2.8828726215150895
561 565 4.1140751184379376E-1
561 641 -2.0017148397653046
561 642 -5.281846648885042E-1
562 508 1.5068119976208445
562 509 -3.719082404882519E-1
562 510 -4.271131018889151
562 511 -1.5625000000278755
562 512 9.375000000010777E-1
562 513 -4.382605820222196
562 524 2.379332784249436
562 525 -9.011029377791675E-1
562 526 -6.1315414002031305
562 527 -1.6843201960350047
562 539 -8.324503449064988E-1
562 540 -1.8666183726686065
562 541 6.714006981065347E-1
562 557 -2.6893638032014855E-1
562 558 1.9676828302249911
562 559 -1.2547499203973613
562 560 -1.5118453724558072
562 561 9.464619689969898E-1
562 562 2.2267434954571034E1
562 563 1.9739075118750524
562 564 4.1140751184379354E-1
562 565 -3.0270611590179857
562 641 -1.1234227601308255
562 642 -3.871746333947742
563 508 -2.0932533738037487
563 509 4.8684445447296054E-2
563 510 -3.4901287895517763E-1
563 511 1.7066592263187677E-1
563 512 -1.7773437499959038E-1
563 513 2.1158854167152663E-1
563 521 -9.622066988640379E-1
563 522 -8.581668493585573E-2
563 523 1.0216272016322536E-1
563 539 -5.727731886005376
563 540 1.6697172312262267
563 541 2.8046135898927567
563 557 -2.449535865750802
563 558 1.0617105735531855
563 559 -1.2639411590182705
563 560 -5.507872621542281
563 561 -1.658082309940435
563 562 1.9739075118750524
563 563 1.6569934523334375E1
563 564 -8.58478880350829E-1
563 565 -3.4793183256291167
564 508 5.48684445447295E-1
564 509 -3.6870033737912857
564 510 -1.7813045456305268
564 511 2.597656249992948E-1
564 512 -1.141834077366416
564 513 7.324218749995021E-1
564 521 -5.233166849347408E-1
564 522 -2.2747066988572113
564 523 1.143829386844144
564 539 1.1697172312262258
564 540 -5.570560600741799
564 541 -2.060586796361851
564 557 1.0617105735531849
564 558 -5.445707518702771E-1
564 559 -2.634342714744086E-1
564 560 -1.6580823099404345
564 561 -2.8828726215150895
564 562 4.1140751184379354E-1
564 563 -8.58478880350829E-1
564 564 1.6101548124142084E1
564 565 1.817666839779347
565 508 2.4622521629368943E-1
565 509 -1.7813045456305272
565 510 -5.194400939040131
565 511 -3.092447916710972E-1
565 512 7.324218749995023E-1
565 513 -1.3985305059682374
565 521 6.22996053505851E-1
565 522 1.143829386844145
565 523 -2.6755916649595988
565 539 2.2093754946438855
565 540 -2.0605867963618514
565 541 -7.3080306015340115
565 557 -1.263941159018271
565 558 -2.6343427147440873E-1
565 559 -4.522433119511489E-1
565 560 1.9739075118750518
565 561 4.1140751184379376E-1
565 562 -3.0270611590179857
565 563 -3.4793183256291167
565 564 1.817666839779347
565 565 2.0055858182471116E1
566 514 1.70665922637781E-1
566 515 -1.777343750010732E-1
566 516 -2.1158854165496777E-1
566 517 -2.0947781529519456
566 518 4.863354395780606E-2
566 519 3.4992183407121275E-1
566 536 -5.728182116040275
566 537 1.6686927990873464
566 538 -2.8047144379771995
566 542 -9.642679476370842E-1
566 543 -8.644546799816866E-2
566 544 -1.029112714321691E-1
566 566 1.6573111034597577E1
566 567 -8.558539862117547E-1
566 568 3.480354933453378
566 570 -2.4466148703610147
566 571 1.0614185791811597
566 572 1.263593546628283
566 573 -5.509933870245031
566 574 -1.6587110930153164
566 575 -1.9746560630885357
567 514 2.597656249993249E-1
567 515 -1.1418340773614
567 516 -7.324218750029665E-1
567 517 5.486335439578051E-1
567 518 -3.6885281529467475
567 519 1.7822135007420514
567 536 1.1686927990873457
567 537 -5.572448341598544
567 538 2.061240943468488
567 542 -5.239454679985656E-1
567 543 -2.2767679476447507
567 544 -1.1445779380799554
567 566 -8.558539862117547E-1
567 567 1.6107407988979972E1
567 568 -1.8180395562745268
567 570 1.0614185791811583
567 571 -5.428955991746595E-1
567 572 2.6374098826119374E-1
567 573 -1.6587110930153153
567 574 -2.884933870253868
567 575 -4.1215606311428477E-1
568 514 3.0924479167505164E-1
568 515 -7.324218750029672E-1
568 516 -1.3985305059203248
568 517 -2.453162611776568E-1
568 518 1.7822135007420525
568 519 -5.197983830209173
568 536 -2.2094763427283297
568 537 2.0612409434684897
568 538 -7.31243140151026
568 542 -6.237446047621892E-1
568 543 -1.1445779380799568
568 544 -2.677915263078311
568 566 3.480354933453378
568 567 -1.8180395562745268
568 568 2.0066706420181923E1
568 570 1.2635935466282844
568 571 2.637409882611945E-1
568 572 -4.504606623514299E-1
568 573 -1.9746560630885348
568 574 -4.12156063114286E-1
568 575 -3.0293847571124175
569 461 -3.917151022932267
569 462 -2.050380440053242
569 463 2.739264564131505
569 479 -1.6187203942664043
569 480 -1.1452644806045231
569 481 -1.282725438407379
569 500 -1.6171479200341492
569 501 1.1705816024323737E-1
569 502 2.806636739423739E-1
569 503 -2.802982152289476E-1
569 504 -9.811643049550005E-1
569 505 -8.119365717369536
569 506 9.398907243802299E-1
569 507 -6.648627453616913E-1
569 536 3.5114928127407157
569 537 2.0816626767180257
569 538 1.9769470207629247
569 542 -4.000054642816558
569 543 1.2398115954326798
569 544 -1.719745311759335
569 569 3.385327737934431E1
569 570 -1.2712582562834388E1
569 571 -7.942987090169129E-2
569 572 3.6377366947872886E-1
569 613 -6.183800712576425
569 614 2.3956154367534843
569 615 1.0294101415258197
569 616 -1.7000765077249582
569 617 -1.9984317268280982
569 618 8.109289218174488E-1
569 622 2.5041292884696653
569 623 -1.2202338599111575
569 624 -2.5524901911753934
570 503 -7.942987090169285E-2
570 504 4.841246326630727E-1
570 505 4.228913394650534
570 506 8.176699442962712E-2
570 507 1.9664539984915685E-1
570 517 -7.367160995250237E-1
570 518 9.919569397386421E-1
570 519 -9.582357860459165E-1
570 530 -3.183914814275195
570 531 -1.3896847373505385
570 532 -8.765563792227988E-1
570 536 -5.806865799728921
570 537 -1.7008743153009875
570 538 3.2498029627394636
570 542 -3.4684941220282774
570 543 -1.437224917814595
570 544 -1.4924166998059103
570 545 8.787843719534165E-1
570 546 -1.9806860655790026E-1
570 547 9.297530071063114E-1
570 548 -3.474980609150766
570 549 -1.610413649458688
570 550 2.32549332630135E-2
570 566 -2.4466148703610147
570 567 1.0614185791811583
570 568 1.2635935466282844
570 569 -1.2712582562834388E1
570 570 3.897105596401586E1
570 571 3.1803218820620094
570 572 -4.083274156896644
570 573 -1.182397424729259
570 574 1.6123202946560302
570 575 2.682601140021221E-1
570 616 -1.1809311243431003E1
570 617 -1.9057995423060559
570 618 3.517834192885553
570 622 7.431238154440507E-1
570 623 1.3937109496229922
570 624 -2.522785767165708
571 503 -1.7518847751363886E1
571 504 -5.093233191701673
571 505 8.176699442962566E-2
571 506 1.5515726626885904
571 507 3.170894630237753
571 517 9.919569397386416E-1
571 518 -8.047060734848449E-1
571 519 8.870812957881385E-1
571 530 -1.3896847373505392
571 531 -5.345768943902776
571 532 -3.408137692049271
571 536 -1.7008743153009873
571 537 -2.9520063117176125
571 538 6.902441032876996E-1
571 542 -1.4372249178145955
571 543 -1.6099944618336872
571 544 -9.716690340213692E-1
571 545 -1.9806860655790037E-1
571 546 5.836327838123994E-1
571 547 1.5515333948504455
571 548 -1.6104136494586863
571 549 -6.26659525107847
571 550 2.738798723350726E-1
571 566 1.0614185791811597
571 567 -5.428955991746595E-1
571 568 2.637409882611945E-1
571 569 -7.942987090169129E-2
571 570 3.1803218820620094
571 571 3.943190858299196E1
571 572 4.278003865484376
571 573 1.6123202946560304
571 574 -2.6866140665286338
571 575 -1.9670194451521752
571 616 -1.9057995423060572
571 617 -7.297153980648289
571 618 4.5710708932888E-1
571 622 1.393710949622994
571 623 3.4574684102399242
571 624 -1.3242587664907185E-1
572 503 -4.199568514192817
572 504 -1.2818610730829931E1
572 505 1.9664539984915813E-1
572 506 3.1708946302377536
572 507 -1.0917539662636633E-1
572 517 -3.629976907970462E-1
572 518 2.91843200552385E-1
572 519 3.764181700832079E-1
572 530 -8.765563792227976E-1
572 531 -3.408137692049271
572 532 -9.219238092134875
572 536 3.2498029627394662
572 537 6.902441032876995E-1
572 538 -5.80578911480501
572 542 -6.239953466643953E-1
572 543 -4.6621099612105826E-1
572 544 -1.1280097691063191
572 545 4.5486587504178344E-1
572 546 6.578687173415894E-1
572 547 2.5677928695771786
572 548 2.32549332630113E-2
572 549 2.73879872335072E-1
572 550 -5.280511346760894
572 566 1.263593546628283
572 567 2.6374098826119374E-1
572 568 -4.504606623514299E-1
572 569 3.6377366947872886E-1
572 570 -4.083274156896644
572 571 4.278003865484376
572 572 3.7473561184173846E1
572 573 2.6826011400212113E-1
572 574 -1.9670194451521752
572 575 -1.2519034809719491
572 616 2.6494128397440404
572 617 5.468871466643248E-1
572 618 -8.444530142927716
572 622 -2.522785767165709
572 623 -1.3242587664907246E-1
572 624 4.0904565126802686
573 514 -3.761970899462913
573 515 8.125000000011933E-1
573 516 1.5624999999900546
573 517 -2.7892561874535335
573 518 7.074888726090127E-1
573 519 -1.5075070809326294
573 530 -5.789961258680577
573 531 1.0748958254113792
573 532 -2.3806327667841463
573 536 1.941626223796047
573 537 -4.6120224885889904E-1
573 538 8.332702632668262E-1
573 548 -3.3371626740564495
573 549 -9.908939241378742E-1
573 550 1.685422458314326
573 566 -5.509933870245031
573 567 -1.6587110930153153
573 568 -1.9746560630885348
573 570 -1.182397424729259
573 571 1.6123202946560304
573 572 2.6826011400212113E-1
573 573 2.0429056090831715E1
573 574 -1.096397726665528
573 575 1.5133430752319819
574 514 3.1250000000119327E-1
574 515 -2.090542328027604
574 516 -3.4226190476319296E-1
574 517 2.6998887260945326E-1
574 518 -1.570506187452478
574 519 -1.496201761560721E-1
574 530 1.5123958254109384
574 531 -3.972382315684391
574 532 1.4220789900237771
574 536 -4.612022488588985E-1
574 537 -1.2053281914231313
574 538 1.8675413411328567
574 548 -4.908939241378742E-1
574 549 -2.004735977164426
574 550 5.292869271657897E-1
574 566 -1.6587110930153164
574 567 -2.884933870253868
574 568 -4.12156063114286E-1
574 570 1.6123202946560302
574 571 -2.6866140665286338
574 572 -1.9670194451521752
574 573 -1.096397726665528
574 574 1.641504293653453E1
574 575 -9.478496691366974E-1
575 514 1.5624999999900544
575 515 -9.374999999989468E-1
575 516 -4.38260582006044
575 517 -1.5075070809326296
575 518 3.712131571809302E-1
575 519 -4.274027895357464
575 530 -2.380632766784146
575 531 9.012456566867746E-1
575 532 -6.134366633940886
575 536 8.332702632668251E-1
575 537 1.8675413411328563
575 538 6.70949499533784E-1
575 548 1.685422458314326
575 549 1.1245250224015435
575 550 -3.8749645694829136
575 566 -1.9746560630885357
575 567 -4.1215606311428477E-1
575 568 -3.0293847571124175
575 570 2.682601140021221E-1
575 571 -1.9670194451521752
575 572 -1.2519034809719491
575 573 1.5133430752319819
575 574 -9.478496691366974E-1
575 575 2.2276303657392283E1
576 576 1.112200355014037E1
576 577 1.334253933431618E-1
576 582 -7.589006274762141
576 583 -3.723739528188448E-1
576 600 8.177139281628039E-1
576 601 -5.749032724728282E-1
576 602 -5.15307637510512E-1
576 634 7.043414070057612E-1
576 635 6.2383839067056995E-2
576 636 1.0224535172787634E-1
576 637 6.48477105622004E-2
576 646 -1.8998572148116066
576 829 -3.5669318427577057E-1
576 830 -1.1712185846221274E-1
576 831 -2.714081734978678E-1
576 838 -1.9041773829415167
576 839 2.7928046461395956E-1
576 840 1.4248929111078152
576 873 -2.152224475390801
576 874 5.494478740688883E-1
576 875 4.924909971442103E-1
577 576 1.334253933431618E-1
577 577 1.1723729615721627E1
577 582 -6.223739528179763E-1
577 583 -7.829286006610947
577 600 -5.749032724728284E-1
577 601 2.1927907916163825E-1
577 602 -2.0219599181466397E-1
577 634 4.578055034792472
577 635 -8.525464827135533E-2
577 636 7.138351872525159E-1
577 637 4.0810246671158645E-1
577 646 -2.8054972258471635
577 829 1.328781415369179E-1
577 830 5.327722244588855E-1
577 831 4.4955481806082753E-1
577 838 4.6678046461319167E-1
577 839 -1.7239675840550257
577 840 -8.72067556816344E-1
577 873 5.49447874068889E-1
577 874 -3.6363625159286923
577 875 -1.5559515450867143
578 578 6.440120241563147E1
578 579 -3.2023956460276652
578 580 8.772941631134608E-1
578 581 -1.042996699581832
578 582 -1.1597271572012467E1
578 583 2.1202560591405875
578 587 -3.4246786727573436E1
578 600 2.3267259346119094
578 601 -1.840471037262432
578 602 2.6445221066127074
578 622 -3.4845756904590868
578 623 -1.6925908141558073
578 624 -1.6970018055711904
578 625 1.8199130849488054
578 626 2.102521758200438E-1
578 627 1.0049192127994583E-1
578 640 2.510598487639374
578 646 2.686842131528868
578 653 1.2340029761713238
578 681 -1.5297619046261008
578 686 -2.027599042193306
578 835 -1.9767900444446627
578 836 -6.838286400246959E-1
578 837 -1.8521115057998232
578 838 -8.696199323762986
578 839 -2.054853517040183
578 840 -3.177613974373547
578 847 3.8416189650487187E-1
578 848 -2.5000000000936834E-1
578 849 3.287556345017069
578 873 -1.590428894380268E-1
578 874 1.5494692142457818
578 875 -2.719449529410947
578 883 -3.4494287892115416
578 884 1.502634105242768
578 885 1.6708761481849508
578 892 2.9758985422632417E-1
578 912 -1.8237537203124108
578 913 -7.343749999942938E-1
578 914 5.794270833581995E-1
578 915 4.374999999998046E-1
578 916 2.8645833334029813E-1
578 953 2.499999999890981E-1
578 954 -1.2500000000307647
578 956 1.1123436708912453E-2
579 524 -6.225006542719768
579 525 -2.6326548314485704E-1
579 526 -1.6477657429485733
579 554 8.637451156500152E-1
579 555 -1.3525095662834998
579 556 2.0993824674999986
579 578 -3.2023956460276652
579 579 4.567189932748816E1
579 580 -1.2836058936064831
579 581 1.959190978324587
579 582 -1.096581737890956E1
579 583 2.2355556919559305E-1
579 584 -1.4905741527588342E1
579 585 -2.5000000000347034E-1
579 586 -2.642435643411251
579 587 3.856186784570652E-1
579 600 5.220019956490594
579 601 5.210167052302537E-1
579 602 -3.121898543972053
579 622 -7.292090626324931
579 623 5.52770354083665E-1
579 624 9.264712108347912E-1
579 640 -1.5638300329130972
579 643 -4.732543315435791
579 644 1.0451986968673377
579 645 1.1840653951528024
579 646 4.6220623772121294E-1
579 653 1.105505952362388
579 654 7.732345779405133E-1
579 655 5.170454545455947E-1
579 656 2.95928030310144E-1
579 681 -2.4883658008522898
579 682 -4.208062770530395
579 683 4.772727272724812E-1
579 684 -2.130681818179265
579 686 2.9549356434131857
579 892 5.647941631126925E-1
579 915 -5.250000000002966E-1
579 916 -5.93750000009811E-1
579 953 -4.7727272727248143E-1
579 954 1.8181818181773277
579 956 2.500000000034706E-1
580 524 -6.382654831454079E-1
580 525 -2.148672081881411
580 526 -8.209919307800315E-1
580 554 -1.3525095662834994
580 555 1.7630396391688887
580 556 2.7847003428107033
580 578 8.772941631134608E-1
580 579 -1.2836058936064831
580 580 4.225183779300472E1
580 581 1.594014030420104
580 582 5.985555691961448E-1
580 583 -6.653090287976678
580 584 -2.500000000034709E-1
580 585 -1.5041599223564104E1
580 586 -2.1904730893102364
580 587 2.500000000034711E-1
580 600 5.210167052302537E-1
580 601 2.8049168633054924
580 602 1.7630384459209583
580 622 5.527703540836654E-1
580 623 -1.0046891576328216E1
580 624 -3.325750743173066
580 640 -2.633916941817931E-1
580 643 7.326986968665685E-1
580 644 -6.720884532871745
580 645 -3.0236150414374503
580 646 2.2699388483422184E-1
580 653 -5.250000000002965E-1
580 654 5.170454545455943E-1
580 655 -3.657264610290528E-1
580 656 3.4327651513745194E-1
580 681 -4.772727272724817E-1
580 682 4.7727272727248127E-1
580 683 -3.6418290043279895
580 684 2.6176948052120106
580 686 -1.1577411964482953
580 892 -9.817684952174374E-1
580 915 8.71220238074005E-1
580 916 -1.0639880952503735
580 953 -3.054599567057364
580 954 2.516233766245797
580 956 9.640466967008909E-1
581 524 -2.27276574294715
581 525 -8.209919307683264E-1
581 526 -1.386592893945322
581 554 2.099382467499999
581 555 2.7847003428107038
581 556 1.7169728861674947
581 578 -1.042996699581832
581 579 1.959190978324587
581 580 1.594014030420104
581 581 6.959929767134055E1
581 582 4.6220623772121294E-1
581 583 -5.170537342287389E-1
581 584 -2.6424356434112513
581 585 -2.1904730893102364
581 586 -3.712849612299509E1
581 587 2.9549356434131866
581 600 -3.121898543972053
581 601 1.7630384459209585
581 602 2.9880715586508004
581 622 9.264712108347899E-1
581 623 -3.3257507431730664
581 624 -6.172535326690725
581 640 2.3154435233381326E-1
581 643 1.184065395152802
581 644 -3.990876946188727
581 645 -1.0562945145909831E1
581 646 -9.150303216503872
581 653 3.1249999988766652E-2
581 654 -2.2490530302112272E-1
581 655 1.3105384199054664
581 656 2.7498883929127715
581 681 1.8181818181773275
581 682 -2.130681818179265
581 683 2.61769480521201
581 684 -1.0656845237983154E1
581 686 3.856186778988347E-1
581 892 -2.633916941985313E-1
581 915 -3.199404761991187E-1
581 916 3.4705505951946236
581 953 2.516233766245798
581 954 -6.084226190470887
581 956 -1.157741196448295
582 576 -7.589006274762141
582 577 -6.223739528179763E-1
582 578 -1.1597271572012467E1
582 579 -1.096581737890956E1
582 580 5.985555691961448E-1
582 581 4.6220623772121294E-1
582 582 3.973864798383966E1
582 583 -1.403952947399166
582 600 -1.4918501524308036E1
582 601 3.513318129373685E-2
582 602 2.1580095847146823
582 622 7.3117608924468485
582 623 -1.2426438823358221
582 624 -1.6996880688397509
582 634 -1.8998572148116062
582 635 -1.8708171770210094
582 636 3.409182160887715E-1
582 637 1.3618019208960677
582 640 2.6868421315288686
582 643 -1.1089236111449385
582 644 -1.9326394485671547E-1
582 645 1.945431315679533E-1
582 646 -3.510647476230112
582 838 -1.184121696023137
582 839 -8.885241815906602E-1
582 840 2.0355613016367619E-1
582 873 2.1840503578947854
582 874 1.5058958832819664
582 875 4.3233623289006456E-2
582 892 1.8702560591397193
583 576 -3.723739528188448E-1
583 577 -7.829286006610947
583 578 2.1202560591405875
583 579 2.2355556919559305E-1
583 580 -6.653090287976678
583 581 -5.170537342287389E-1
583 582 -1.403952947399166
583 583 3.469520123477072E1
583 600 3.5133181293736146E-2
583 601 -1.469178412393899E1
583 602 2.875822333981838E-1
583 622 -1.2426438823358215
583 623 3.430053845182425
583 624 -1.0900977111445118
583 634 -1.9126400830057175
583 635 2.159182160893223E-1
583 636 -1.775015256926506
583 637 1.3604181685976435E-2
583 640 -3.7065874748739085
583 643 -6.932639448567158E-1
583 644 7.541094701320744E-1
583 645 5.546645429945931E-1
583 646 4.515982813428626
583 838 -3.885241815906592E-1
583 839 7.294898792943026E-1
583 840 7.789053150355186E-1
583 873 1.5058958832819669
583 874 2.2529332142989253
583 875 1.0756399167099788
583 892 -1.0912611968225331E1
584 524 3.856186786154173E-1
584 525 2.500000000034709E-1
584 526 2.6424356434112517
584 530 -5.680184685428815
584 531 -3.9269526509727615E-1
584 532 -1.1052006833229333
584 579 -1.4905741527588342E1
584 580 -2.500000000034709E-1
584 581 -2.6424356434112513
584 584 4.230287082889353E1
584 585 -1.3092565052440275
584 586 4.212538971362704
584 587 -2.3095200038320254
584 594 -1.1163847243695894E1
584 595 2.103884398355419E-1
584 596 -5.629306970840997E-1
584 597 -4.7397772882797495
584 598 1.0474758450527384
584 599 -1.1849523224300211
584 607 5.342396693125444
584 608 5.269663549520537E-1
584 609 3.1787973039217854
584 616 8.557850795847828E-1
584 617 -1.3526170163409155
584 618 -2.099790031509024
584 622 -7.380755293282524
584 623 5.486939837655143E-1
584 624 -9.692319304892805E-1
584 681 -3.005952380223607E-1
584 682 -2.406250000089461
584 683 6.562500000073361E-1
584 684 3.1250000001300154E-1
584 686 -1.5733972771200837
584 953 -4.3750000000498185E-1
584 954 -2.083333333420462E-1
584 956 5.022941630740166E-1
585 524 2.500000000034704E-1
585 525 9.640466968627698E-1
585 526 4.047588035779277E-1
585 530 -7.676952650963955E-1
585 531 -2.069023987673255
585 532 1.8936835232938054E-1
585 579 -2.5000000000347034E-1
585 580 -1.5041599223564104E1
585 581 -2.1904730893102364
585 584 -1.3092565052440275
585 585 4.179287092956971E1
585 586 4.6805420868964154E-1
585 587 8.147941630727366E-1
585 594 5.853884398346623E-1
585 595 -6.774312007320428
585 596 -2.1437646641308528E-1
585 597 7.349758450540183E-1
585 598 -6.721868908301417
585 599 3.024685988367705
585 607 5.269663549520542E-1
585 608 2.884221165539304
585 609 -1.7499792576320856
585 616 -1.352617016340917
585 617 1.7513620230597748
585 618 -2.8055562431430054
585 622 5.486939837655143E-1
585 623 -1.0100142596190803E1
585 624 3.3311050510263684
585 681 -4.375000000049824E-1
585 682 6.562500000073372E-1
585 683 -5.556250000140427
585 684 -9.672619048292412E-1
585 686 1.2537221763338444
585 953 -1.0577380951114397
585 954 -7.440476189972138E-1
585 956 -7.156599672968844E-2
586 524 2.6424356434112513
586 525 4.047588035779274E-1
586 526 3.8561867829118934E-1
586 530 -8.968673499881765E-1
586 531 1.8936835232960733E-1
586 532 -1.9197950306548468
586 579 -2.642435643411251
586 580 -2.1904730893102364
586 581 -3.712849612299509E1
586 584 4.212538971362704
586 585 4.6805420868964154E-1
586 586 6.2219108364327276E1
586 587 -1.8858972771221525
586 594 -5.629306970840988E-1
586 595 5.2967115262034E-1
586 596 -9.342236956056757
586 597 -1.18495232243002
586 598 3.9919478931426156
586 599 -1.0587499746935139E1
586 607 3.178797303921783
586 608 -1.7499792576320847
586 609 3.1325909118963087
586 616 -2.0997900315090225
586 617 -2.805556243143004
586 618 1.694807470103928
586 622 -9.692319304892809E-1
586 623 3.331105051026369
586 624 -6.2686589314075105
586 681 -4.166666666768014E-1
586 682 6.250000000150705E-1
586 683 -1.9345238096038224
586 684 -2.275000000166078
586 686 4.7765660156802564E-1
586 953 -1.488095238030867
586 954 -3.880952379713087E-1
586 956 1.253722176333514
587 578 -3.4246786727573436E1
587 579 3.856186784570652E-1
587 580 2.500000000034711E-1
587 581 2.9549356434131866
587 584 -2.3095200038320254
587 585 8.147941630727366E-1
587 586 -1.8858972771221525
587 587 6.425157400183382E1
587 594 -1.1520500441345561E1
587 595 2.0841258475620363
587 596 -2.709595213060362
587 607 2.258002445470479
587 608 -1.8217557237467346
587 609 -2.631965302487064
587 622 -3.7579615716842216
587 623 -1.7083840019610184
587 624 1.6732141009747912
587 625 1.830780700360275
587 626 2.1011920765814268E-1
587 627 -8.675247108696027E-2
587 640 -2.0275990421933052
587 681 -2.440476190623232
587 686 1.8393778326109782
587 847 -2.8389863003860127
587 848 -6.838286400438662E-1
587 849 -1.435444839138645
587 865 -8.71914564558789
587 866 -2.067089773327491
587 867 3.169323089530518
587 880 -1.183051118969865E-1
587 881 1.5564326007006297
587 882 2.7208982337323464
587 883 -3.1760795476054504
587 884 1.4961295452583796
587 885 -1.6846614218435372
587 892 1.112343670891263E-2
587 912 7.023809524353114E-1
587 913 -2.500000000109018E-1
587 914 -9.375000000431679E-1
587 950 -3.005952380221417E-1
587 951 -4.37500000004574E-1
587 952 6.249999999932796E-1
587 953 9.166666666824747E-1
587 954 4.1666666672009206E-1
587 956 -3.7083332855219636E-1
588 545 4.277200871175217E-1
588 546 6.1991253167407334E-2
588 547 1.1872178304484277E-1
588 588 1.3677112686932656E1
588 589 1.71403826632146E-1
588 590 -1.294381489791347
588 591 6.2487990362344675E-2
588 592 -9.13311212170103E-2
588 593 4.538924445020979E-1
588 594 -1.8659960354196967
588 595 2.17943707073867E-1
588 596 -1.3616773333888759
588 597 -1.1369445594459389E1
588 598 -3.269155606107289E-1
588 599 2.042516000082869
588 607 -1.7856583731531186
588 608 3.58404965920813E-1
588 609 -4.432782947226641E-1
588 616 8.537792386196815E-1
588 617 -3.914970709664944E-1
588 618 4.842068902730776E-1
589 545 -6.300874683347324E-2
589 546 8.444072403485425E-1
589 547 -3.7182192585193363E-1
589 588 1.71403826632146E-1
589 589 1.4202613743484102E1
589 590 -4.695143640753501
589 591 9.616887878426929E-2
589 592 7.140445270949952E-1
589 593 -4.8587065496591897E-1
589 594 3.42943707074748E-1
589 595 -1.7632279020942878
589 596 7.135643457919727E-1
589 597 -5.144155606120093E-1
589 598 -1.1523597794447468E1
589 599 3.096320147961891
589 607 3.5840496592081356E-1
589 608 -2.8986800114355478
589 609 1.3187221866361285
589 616 -3.914970709664945E-1
589 617 4.2444019704966446E-1
589 618 4.2422954118136136E-1
590 545 5.936089151093711E-1
590 546 -5.198239150170831E-1
590 547 1.9989180839821887
590 588 -1.294381489791347
590 589 -4.695143640753501
590 590 2.9736373571587542E1
590 591 -6.484177773526256E-2
590 592 -4.0890623295587664E-1
590 593 1.7105807192579285
590 594 -1.3616773333888776
590 595 -3.0483273241454056E-2
590 596 -5.503063981904649
590 597 2.0425160000828706
590 598 2.1290582431869787
590 599 -2.7166503146115637E1
590 607 -9.18165426787192E-1
590 608 2.210771794834705
590 609 -3.4706056997636994
590 616 1.002941112510438
590 617 1.3145270239462308
590 618 2.6943004529563264
591 588 6.2487990362344675E-2
591 589 9.616887878426929E-2
591 590 -6.484177773526256E-2
591 591 1.1110401499977835E1
591 592 1.4541775445069544E-1
591 593 -7.067325447445568E-1
591 594 -7.578857816382879
591 595 -3.738464231462916E-1
591 596 1.9034759922340887
591 607 8.100398764117385E-1
591 608 -5.756743419284592E-1
591 609 5.149238542566463E-1
591 853 -3.578453217593938E-1
591 854 -1.2153926943292898E-1
591 855 2.719251417946965E-1
591 865 -1.9054844478973822
591 866 2.803848173601946E-1
591 867 -1.4276069941779896
591 880 -2.1407417807122626
591 881 5.490885839125205E-1
591 882 -4.9114367162762235E-1
592 588 -9.13311212170103E-2
592 589 7.140445270949952E-1
592 590 -4.0890623295587664E-1
592 591 1.4541775445069544E-1
592 592 1.1709973998969474E1
592 593 -4.577801941307733
592 594 -6.238464231475732E-1
592 595 -7.8242351060989455
592 596 2.8177678119549276
592 607 -5.756743419284598E-1
592 608 2.022571773878506E-1
592 609 2.0478393381816284E-1
592 853 1.2846073056835328E-1
592 854 5.326052252988551E-1
592 855 -4.47801877217934E-1
592 865 4.67884817361474E-1
592 866 -1.7214514806100203
592 867 8.628646172101518E-1
592 880 5.490885839125204E-1
592 881 -3.6131943420422084
592 882 1.5490936884983015
593 588 4.538924445020979E-1
593 589 -4.8587065496591897E-1
593 590 1.7105807192579285
593 591 -7.067325447445568E-1
593 592 -4.577801941307733
593 593 2.162486398330563E1
593 594 1.9034759922340878
593 595 1.9249106690816709
593 596 -1.7673890215434724E1
593 607 1.0587741377472244
593 608 1.0948944651117365
593 609 2.742224292566826
593 853 -2.719251416958812E-1
593 854 -4.4505526563825093E-1
593 855 1.29856725595569
593 865 -1.427606994177989
593 866 4.441223627626367E-2
593 867 -5.718651863886933
593 880 -1.0098778938649828
593 881 2.444510491442232
593 882 -3.983694171764423
594 584 -1.1163847243695894E1
594 585 5.853884398346623E-1
594 586 -5.629306970840988E-1
594 587 -1.1520500441345561E1
594 588 -1.8659960354196967
594 589 3.42943707074748E-1
594 590 -1.3616773333888776
594 591 -7.578857816382879
594 592 -6.238464231475732E-1
594 593 1.9034759922340878
594 594 3.988624930234021E1
594 595 -1.3173001557949935
594 596 3.6489933850869964
594 597 -1.1162511031693159
594 598 -2.11493363605555E-1
594 599 -1.9452533333002275E-1
594 607 -1.5030558352020904E1
594 608 1.7361126210144393E-3
594 609 -2.2355832306519305
594 622 7.3735683692665335
594 623 -1.2200757514098586
594 624 1.7612199876080363
594 686 -2.7095952130603616
594 865 -1.192858916937779
594 866 -8.984633561728602E-1
594 867 -2.0394385630516854E-1
594 880 2.2090522373652863
594 881 1.5069849430370956
594 882 -4.5433701108660324E-2
594 956 1.8341258475633184
595 584 2.103884398355419E-1
595 585 -6.774312007320428
595 586 5.2967115262034E-1
595 587 2.0841258475620363
595 588 2.17943707073867E-1
595 589 -1.7632279020942878
595 590 -3.0483273241454056E-2
595 591 -3.738464231462916E-1
595 592 -7.8242351060989455
595 593 1.9249106690816709
595 594 -1.3173001557949935
595 595 3.4765968648071514E1
595 596 -4.522448886424664
595 597 -7.114933636055552E-1
595 598 7.354681177804256E-1
595 599 -5.570758417245001E-1
595 607 1.736112621014068E-3
595 608 -1.4778310236219607E1
595 609 -2.767094408581504E-1
595 622 -1.220075751409858
595 623 3.4515180758474697
595 624 1.0839733008009773
595 686 3.704800156767856
595 865 -3.984633561728606E-1
595 866 7.146750097158141E-1
595 867 -7.802200206470868E-1
595 880 1.506984943037097
595 881 2.3033572589162765
595 882 -1.0764178163749878
595 956 -1.0830901858598228E1
596 584 -5.629306970840997E-1
596 585 -2.1437646641308528E-1
596 586 -9.342236956056757
596 587 -2.709595213060362
596 588 -1.3616773333888759
596 589 7.135643457919727E-1
596 590 -5.503063981904649
596 591 1.9034759922340887
596 592 2.8177678119549276
596 593 -1.7673890215434724E1
596 594 3.6489933850869964
596 595 -4.522448886424664
596 596 4.94284642356653E1
596 597 -1.9452533333002453E-1
596 598 -5.57075841724501E-1
596 599 1.975404861282012
596 607 -2.2355832306519297
596 608 -2.767094408581496E-1
596 609 -1.4587143175015019E1
596 622 1.761219987608038
596 623 1.0839733008009762
596 624 4.659504371553851
596 686 -1.6147621167581175E1
596 865 -2.039438563051686E-1
596 866 -7.802200206470875E-1
596 867 2.0484887726347893
596 880 -4.543370110866253E-2
596 881 -1.076417816374987
596 882 5.142093254856363
596 956 2.811943013894599
597 530 -8.022450717382243E-1
597 531 -7.65921768983517E-1
597 532 1.4543418419452003
597 545 -1.752781562291207
597 546 2.190043734179404E-1
597 547 -1.2465787216830755
597 548 -9.809458228075209E-1
597 549 -3.353936072200253E-2
597 550 -1.78082674512999E-1
597 584 -4.7397772882797495
597 585 7.349758450540183E-1
597 586 -1.18495232243002
597 588 -1.1369445594459389E1
597 589 -5.144155606120093E-1
597 590 2.0425160000828706
597 594 -1.1162511031693159
597 595 -7.114933636055552E-1
597 596 -1.9452533333002453E-1
597 597 2.4332939006073104E1
597 598 1.2077934214862243
597 599 -6.967287408016556E-1
597 607 1.349031337009267
597 608 1.4773228399010316
597 609 -4.342988312891316E-2
597 616 -4.9205239003369625
597 617 -1.6137264259361292
597 618 4.7439833858616E-2
598 530 -1.2034217689830764
598 531 -5.821102339592695E-1
598 532 1.099943312909977
598 545 1.5650437341749993E-1
598 546 -1.725469209745746
598 547 -1.1372692134173612E-1
598 548 -5.335393607220018E-1
598 549 7.756807232541061E-1
598 550 -3.351242540447499E-1
598 584 1.0474758450527384
598 585 -6.721868908301417
598 586 3.9919478931426156
598 588 -3.269155606107289E-1
598 589 -1.1523597794447468E1
598 590 2.1290582431869787
598 594 -2.11493363605555E-1
598 595 7.354681177804256E-1
598 596 -5.57075841724501E-1
598 597 1.2077934214862243
598 598 2.7724874030539482E1
598 599 -6.269150839280842
598 607 1.4773228399010303
598 608 7.10925397348171E-1
598 609 -5.862392221340326E-1
598 616 -1.6137264259361284
598 617 -9.393902122468283
598 618 6.403676292862903E-1
599 530 1.4543418419452
599 531 4.303004557762188E-1
599 532 -1.4404029224740948
599 545 -1.2465787216830742
599 546 5.559159357920231E-1
599 547 -5.0824187679823405
599 548 -1.780826745130002E-1
599 549 -3.3512425404475055E-1
599 550 1.8493814841954728
599 584 -1.1849523224300211
599 585 3.024685988367705
599 586 -1.0587499746935139E1
599 588 2.042516000082869
599 589 3.096320147961891
599 590 -2.7166503146115637E1
599 594 -1.9452533333002275E-1
599 595 -5.570758417245001E-1
599 596 1.975404861282012
599 597 -6.967287408016556E-1
599 598 -6.269150839280842
599 599 4.4223812643277924E1
599 607 -4.342988312891172E-2
599 608 -5.862392221340343E-1
599 609 3.51818940746129
599 616 4.743983385861485E-2
599 617 6.403676292862892E-1
599 618 -7.289963812709487
600 485 -8.697030402200103E-1
600 486 1.0509272146493776E-2
600 554 -7.349410558457433
600 555 -1.442002217750482E-1
600 556 5.18916177663991E-1
600 576 8.177139281628039E-1
600 577 -5.749032724728284E-1
600 578 2.3267259346119094
600 579 5.220019956490594
600 580 5.210167052302537E-1
600 581 -3.121898543972053
600 582 -1.4918501524308036E1
600 583 3.5133181293736146E-2
600 600 3.95495938481417E1
600 601 2.449445927451132
600 602 -2.579214154682261E-1
600 603 -6.4439237730537835
600 604 -4.012204509344184E-1
600 605 -2.7516115413491915E-2
600 606 -1.8252692435503637
600 622 -1.1168921806648104E1
600 623 -1.5205039061819092
600 624 -2.474836946327167
600 625 2.929534037343261
600 626 2.3271684721645967
600 627 2.1841409728863237
600 634 -1.0581239846046955
600 635 -1.788260769459375
600 636 3.5808291167943807E-1
600 637 9.173741090935225E-1
600 640 2.644522106612709
600 643 1.334548040825135
600 644 1.4765743341266881
600 645 4.3987316199088626E-2
600 646 2.1580095847146823
600 873 -9.639414273428647
600 874 -8.608533997688438E-1
600 875 -1.537162533531176
600 892 -1.8404710372624313
601 485 -1.8252692435503648
601 486 5.556319013125784E-1
601 554 -1.442002217750468E-1
601 555 -1.792605236798753
601 556 4.9661823050287775E-2
601 576 -5.749032724728282E-1
601 577 2.1927907916163825E-1
601 578 -1.840471037262432
601 579 5.210167052302537E-1
601 580 2.8049168633054924
601 581 1.7630384459209585
601 582 3.513318129373685E-2
601 583 -1.469178412393899E1
601 600 2.449445927451132
601 601 3.6881585291436025E1
601 602 2.500454276772062E-1
601 603 -4.0122045093441766E-1
601 604 -1.147608199724455E1
601 605 1.6568987608372228
601 606 -2.491512214411892
601 622 -1.5205039061819088
601 623 -8.670337598365753
601 624 -2.151763333719495
601 625 2.3271684721645967
601 626 3.3464174287195565
601 627 -2.274778776872595
601 634 -1.088800641390468
601 635 3.5808291167943795E-1
601 636 -2.9075209212782855
601 637 -2.2142237060897862
601 640 3.143048379466572
601 643 1.4765743341266888
601 644 6.705274024948229E-1
601 645 5.859421961325332E-1
601 646 2.8758223339818284E-1
601 873 -8.608533997688461E-1
601 874 -3.31503195675956
601 875 -5.622827097231983E-1
601 892 1.4221479836802537
602 485 -5.425669541311104E-1
602 486 1.6482914309028412E-1
602 554 -5.007959837740255E-1
602 555 9.699289976169592E-2
602 556 -2.4816296351136615
602 576 -5.15307637510512E-1
602 577 -2.0219599181466397E-1
602 578 2.6445221066127074
602 579 -3.121898543972053
602 580 1.7630384459209583
602 581 2.9880715586508004
602 582 2.1580095847146823
602 583 2.875822333981838E-1
602 600 -2.579214154682261E-1
602 601 2.500454276772062E-1
602 602 3.610432177223264E1
602 603 4.493796989303401E-1
602 604 7.229630345500113E-1
602 605 -6.306545220221983
602 606 -3.046409728650833E-1
602 622 -2.474836946327168
602 623 -2.151763333719496
602 624 -1.4692415729101782E1
602 625 2.184140972886323
602 626 -2.274778776872596
602 627 9.009371725996691E-1
602 634 2.7467025916260384
602 635 4.4268605896775254E-1
602 636 -1.320256443349902
602 637 -3.47235929839569
602 640 -6.870230253951803E-1
602 643 4.398731619908884E-2
602 644 5.859421961325324E-1
602 645 3.5015745747385107
602 646 -1.4437425007497932E1
602 873 -5.093982571277976E-1
602 874 -5.959770982854178E-1
602 875 -4.329038897211712
602 892 3.1430483794665705
603 83 -8.841362246691392E-2
603 365 3.6628376320466305E-1
603 366 -1.9457317604390876
603 426 -1.1033843736630555E-1
603 427 1.3991851121857857
603 485 -9.345297285985326
603 486 -6.315839358443012E-1
603 492 -2.429505687060098
603 493 -4.449119992192766E-1
603 600 -6.4439237730537835
603 601 -4.0122045093441766E-1
603 602 4.493796989303401E-1
603 603 2.9435387892951226E1
603 604 4.766652512459966
603 605 -3.410179296558849E-1
603 606 -2.3885252818972784
603 622 5.302415368446011
603 623 2.5244906747840177
603 624 -1.336799855542257
603 625 -1.0980346336055566E1
603 626 -2.5281901302995493
603 627 1.3387588374660717
603 868 -4.032618313563621
603 869 4.5964007424579884E-1
603 873 -1.4176982432119318
603 874 -1.886300750105236
603 875 7.102298580269498E-1
604 83 1.3991851121857872
604 365 -5.117065950487509E-2
604 366 -4.314093097873305
604 426 -6.699248340350653E-2
604 427 -2.724815024329399
604 485 -2.3885252818972784
604 486 -1.3993630309217977
604 492 -1.9457317604390885
604 493 -1.2038312903437713
604 600 -4.012204509344184E-1
604 601 -1.147608199724455E1
604 602 7.229630345500113E-1
604 603 4.766652512459966
604 604 3.554787845219027E1
604 605 1.5978498616248795
604 606 -8.450751269499419
604 622 2.524490674784016
604 623 8.493469615216684
604 624 1.3078514270364816
604 625 -2.5281901302995484
604 626 -1.4176076838259261E1
604 627 -1.3097679871662495
604 868 4.5964007424579745E-1
604 869 -3.994960241829548E-2
604 873 -1.8863007501052345
604 874 -2.859580237782724
604 875 4.024611281288278E-1
605 83 7.167832807346333E-1
605 365 -6.576964971279617E-2
605 366 -2.0274951139753616
605 426 -2.7110743557289263E-1
605 427 -8.464528961858749E-1
605 485 -1.5625582438593544
605 486 -6.553108665965518
605 492 -9.753421085507639E-1
605 493 -2.1379693366971777
605 600 -2.7516115413491915E-2
605 601 1.6568987608372228
605 602 -6.306545220221983
605 603 -3.410179296558849E-1
605 604 1.5978498616248795
605 605 3.023919591239891E1
605 606 -1.4401445976422156
605 622 -1.3367998555422569
605 623 1.3078514270364836
605 624 3.798120171766349
605 625 1.3387588374660724
605 626 -1.3097679871662478
605 627 -1.797908770682137E1
605 868 8.969874863090141E-1
605 869 -1.772643860591287E-1
605 873 1.290704648512031
605 874 1.238524931530243
605 875 -7.237280691735193E-1
606 364 -2.79391762766899
606 366 -2.029001419649882E1
606 381 2.260914781771037
606 382 4.479515479509303
606 383 -4.008557125346648
606 482 -1.6259740293053626
606 483 2.490383577001718E-1
606 484 9.196494665315774E-1
606 485 3.1136495817729397
606 486 -2.3339261473416038
606 490 -7.556100574781854E-2
606 491 -2.4794623988522357E-1
606 492 -7.401989696824123E-1
606 493 3.8703902612918437
606 505 -2.6266354791005533
606 506 -6.135494573325242
606 507 -2.0992381437419025
606 551 2.297226633619701
606 552 -3.3269160857296467
606 553 5.312286644884928E-2
606 554 1.3493900303539588
606 555 -3.274888763136306
606 556 -4.3822224619560224E-1
606 600 -1.8252692435503637
606 601 -2.491512214411892
606 602 -3.046409728650833E-1
606 603 -2.3885252818972784
606 604 -8.450751269499419
606 605 -1.4401445976422156
606 606 4.813478737091342E1
606 622 -3.556109933489217E-1
606 623 -1.2667251732340851E1
606 624 4.793219312208764
606 625 6.165939751150764E-1
606 626 6.567405254488254
606 627 1.2362935665372445
607 584 5.342396693125444
607 585 5.269663549520542E-1
607 586 3.178797303921783
607 587 2.258002445470479
607 588 -1.7856583731531186
607 589 3.5840496592081356E-1
607 590 -9.18165426787192E-1
607 591 8.100398764117385E-1
607 592 -5.756743419284598E-1
607 593 1.0587741377472244
607 594 -1.5030558352020904E1
607 595 1.736112621014068E-3
607 596 -2.2355832306519297
607 597 1.349031337009267
607 598 1.4773228399010303
607 599 -4.342988312891172E-2
607 607 3.961793282706617E1
607 608 2.4707487983328256
607 609 3.553280545053401E-1
607 610 -6.3943504947035334
607 611 -3.699301349522779E-1
607 612 1.5489901137042406E-2
607 613 -8.29235788353295E-1
607 614 -1.8191357605565548
607 615 -1.7121688782575362E-3
607 616 -7.315330569940899
607 617 -1.6166315165993672E-1
607 618 -5.497030871211274E-1
607 622 -1.1167173470929015E1
607 623 -1.520811570484141
607 624 2.4467344146479717
607 625 2.8773993924693135
607 626 2.3101234508350985
607 627 -2.184364489475628
607 686 -2.6319653024870653
607 880 -9.732495522451654
607 881 -8.76331839234731E-1
607 882 1.5097997765707512
607 956 -1.8217557237467343
608 584 5.269663549520537E-1
608 585 2.884221165539304
608 586 -1.7499792576320847
608 587 -1.8217557237467346
608 588 3.58404965920813E-1
608 589 -2.8986800114355478
608 590 2.210771794834705
608 591 -5.756743419284592E-1
608 592 2.022571773878506E-1
608 593 1.0948944651117365
608 594 1.7361126210144393E-3
608 595 -1.4778310236219607E1
608 596 -2.767094408581496E-1
608 597 1.4773228399010316
608 598 7.10925397348171E-1
608 599 -5.862392221340343E-1
608 607 2.4707487983328256
608 608 3.686674418251665E1
608 609 -2.63648097079852E-1
608 610 -3.6993013495227867E-1
608 611 -1.1381289081580368E1
608 612 -1.6249074175460474
608 613 -1.8191357605565546
608 614 -2.450385796132289
608 615 -5.672367503010852E-1
608 616 -1.6166315165993767E-1
608 617 -1.7770787945661932
608 618 -5.571746335303464E-2
608 622 -1.5208115704841396
608 623 -8.623703917459943
608 624 2.1500322737967648
608 625 2.3101234508350976
608 626 3.2724334733496527
608 627 2.281095107049149
608 686 -3.173237707580136
608 880 -8.763318392347309E-1
608 881 -3.379316345836315
608 882 5.608817156920674E-1
608 956 1.3521827870886316
609 584 3.1787973039217854
609 585 -1.7499792576320856
609 586 3.1325909118963087
609 587 -2.631965302487064
609 588 -4.432782947226641E-1
609 589 1.3187221866361285
609 590 -3.4706056997636994
609 591 5.149238542566463E-1
609 592 2.0478393381816284E-1
609 593 2.742224292566826
609 594 -2.2355832306519305
609 595 -2.767094408581504E-1
609 596 -1.4587143175015019E1
609 597 -4.342988312891316E-2
609 598 -5.862392221340326E-1
609 599 3.51818940746129
609 607 3.553280545053401E-1
609 608 -2.63648097079852E-1
609 609 3.618573484975209E1
609 610 -4.667973416685311E-1
609 611 -6.93571168518754E-1
609 612 -6.263372058116234
609 613 5.540411396243528E-1
609 614 2.9508474551651587E-1
609 615 2.1088375299243034E-1
609 616 4.7643443917502415E-1
609 617 -9.694318108675597E-2
609 618 -2.450360394452331
609 622 2.44673441464797
609 623 2.1500322737967656
609 624 -1.4677513003999275E1
609 625 -2.1843644894756276
609 626 2.2810951070491496
609 627 8.006003587735973E-1
609 686 -7.668281894447652E-1
609 880 4.791593360036132E-1
609 881 5.906098280730422E-1
609 882 -4.374401052651218
609 956 -3.1732377075801352
610 85 -1.0806873328014993E-1
610 86 1.405341773725997
610 87 -3.69421015256446E-1
610 607 -6.3943504947035334
610 608 -3.6993013495227867E-1
610 609 -4.667973416685311E-1
610 610 2.9411222867235793E1
610 611 4.697989630297958
610 612 4.02641552906036E-1
610 613 -9.358907625221732
610 614 -2.3648174674774314
610 615 5.999587444503827E-1
610 619 -2.4011490845412493
610 620 -1.9406651252647762
610 621 4.454956629690974E-1
610 622 5.256084671936624
610 623 2.4951390230914816
610 624 1.3566826878941887
610 625 -1.0908003356089422E1
610 626 -2.491493265443646
610 627 -1.354700378997044
610 745 -4.085612898080456
610 746 9.072493624977895E-2
610 876 4.5926811646388055E-1
610 880 -1.4112153472558688
610 881 -1.8908325504411838
610 882 -7.045848485474634E-1
611 85 1.4053417737259983
611 86 -2.750459489615293
611 87 7.165020453814192E-2
611 607 -3.699301349522779E-1
611 608 -1.1381289081580368E1
611 609 -6.93571168518754E-1
611 610 4.697989630297958
611 611 3.5384993747736125E1
611 612 -1.6322644679778102
611 613 -2.3648174674774287
611 614 -8.418883795539752
611 615 1.392417440597609
611 619 -1.940665125264778
611 620 -4.280872391979435
611 621 1.1987580632777948
611 622 2.495139023091479
611 623 8.407789195133542
611 624 -1.3104569783066409
611 625 -2.4914932654436432
611 626 -1.4055102784835563E1
611 627 1.3085422118320733
611 745 4.592681164638822E-1
611 746 6.547115870749107E-2
611 876 -6.757241490009486E-2
611 880 -1.8908325504411865
611 881 -2.8386029844191607
611 882 -4.005464641499049E-1
612 85 -7.218245165597582E-1
612 86 8.686689731705088E-1
612 87 -9.387654153905611E-2
612 607 1.5489901137042406E-2
612 608 -1.6249074175460474
612 609 -6.263372058116234
612 610 4.02641552906036E-1
612 611 -1.6322644679778102
612 612 3.0208982905581305E1
612 613 1.5343817068882029
612 614 1.4272946657110106
612 615 -6.559509153150927
612 619 9.730769763229646E-1
612 620 2.019893096826094
612 621 -2.1239992062196165
612 622 1.3566826878941873
612 623 -1.310456978306643
612 624 3.8077488639273094
612 625 -1.3547003789970455
612 626 1.3085422118320715
612 627 -1.7951181647237263E1
612 745 -9.191436199096601E-1
612 746 -3.04719380651548E-1
612 876 1.756723741864854E-1
612 880 -1.2866043096819715
612 881 -1.2324424578956694
612 882 -7.200737825939718E-1
613 378 1.041516644042919
613 379 -1.1177345081824491E-1
613 380 9.720074884788732E-1
613 381 5.470142830214934
613 382 2.470326271136202
613 383 -1.8636035061777984E-1
613 500 -1.2583261499404785
613 501 -1.7435932196466415
613 502 -6.13657669085416E-1
613 503 2.3956154367534843
613 504 4.0461443102312256E-2
613 505 -6.495275040457722
613 506 -2.5225145532736857
613 507 2.561002923604569
613 569 -6.183800712576425
613 607 -8.29235788353295E-1
613 608 -1.8191357605565546
613 609 5.540411396243528E-1
613 610 -9.358907625221732
613 611 -2.3648174674774287
613 612 1.5343817068882029
613 613 4.10933176718093E1
613 614 3.178349675033192
613 615 -8.064571984980693E-1
613 616 -2.8750013399649715E-1
613 617 1.3274985874016112
613 618 -4.7710979648194685E-1
613 619 -1.6781589646890897E1
613 620 -9.629319705294993E-1
613 621 -1.1056088628000271
613 622 -7.847553787437756
613 623 -4.533374252723916E-1
613 624 -1.2389655121747739E-1
613 625 1.4372117388076386
613 626 6.063138772499579E-1
613 627 -2.3488042729975924
614 378 -1.1177345081824502E-1
614 379 -2.793839251147537
614 380 2.8314883913651195E-1
614 381 2.4703262711361997
614 382 4.91148851583632
614 383 4.013989779080032
614 500 -1.7435932196466415
614 501 8.669124080757734E-2
614 502 -9.242132855824251E-1
614 503 -3.4174795469418395
614 504 -8.287184423454413E-3
614 505 -2.5225145532736843
614 506 -5.81835776386259
614 507 2.042698886418703
614 569 2.3956154367534843
614 607 -1.8191357605565548
614 608 -2.450385796132289
614 609 2.9508474551651587E-1
614 610 -2.3648174674774314
614 611 -8.418883795539752
614 612 1.4272946657110106
614 613 3.178349675033192
614 614 4.914887019804275E1
614 615 2.387203826037585
614 616 1.327498587401612
614 617 -3.252214891828874
614 618 4.7088774881613454E-1
614 619 -9.62931970529497E-1
614 620 -2.1432685611315808E1
614 621 -3.855092872778264
614 622 -4.5333742527239074E-1
614 623 -1.3051687152915308E1
614 624 -4.886707144728608
614 625 6.063138772499581E-1
614 626 6.488483854997341
614 627 -1.246008003203742
615 378 9.613288426660183E-1
615 379 1.2778422399685787
615 380 1.2347577439696633
615 381 -1.8636035061777992E-1
615 382 4.013989779080034
615 383 1.8693267204430042
615 500 2.1616938039337502E-1
615 501 -3.6217514306803067E-1
615 502 8.966496828229116E-1
615 503 -3.7623245965035446E-1
615 504 -2.3601424512884197
615 505 2.5610029236045704
615 506 2.0426988864187043
615 507 -9.55096366735716
615 569 1.0294101415258197
615 607 -1.7121688782575362E-3
615 608 -5.672367503010852E-1
615 609 2.1088375299243034E-1
615 610 5.999587444503827E-1
615 611 1.392417440597609
615 612 -6.559509153150927
615 613 -8.064571984980693E-1
615 614 2.387203826037585
615 615 4.204439077837814E1
615 616 -1.2742266557779544E-1
615 617 -5.091897912841785E-1
615 618 1.3613518896422755E-1
615 619 -1.77321682485319
615 620 -3.166602879866514
615 621 -1.673966347616309E1
615 622 -1.2389655121747882E-1
615 623 -4.886707144728609
615 624 -1.569926512423614E1
615 625 -2.348804272997593
615 626 -1.2460080032037402
615 627 4.517400004625358
616 503 -1.998431726828099
616 504 2.2082108623345037E-1
616 530 5.429782218985725E-2
616 531 1.6832721530057335
616 532 1.8666053147070278
616 545 -1.4335935416182282
616 546 1.818617255046875E-1
616 547 -8.536763554001068E-1
616 548 9.187986853147617E-1
616 549 1.478642224815393
616 550 -2.1352108055910663E-2
616 569 -1.7000765077249582
616 570 -1.1809311243431003E1
616 571 -1.9057995423060572
616 572 2.6494128397440404
616 584 8.557850795847828E-1
616 585 -1.352617016340917
616 586 -2.0997900315090225
616 588 8.537792386196815E-1
616 589 -3.914970709664945E-1
616 590 1.002941112510438
616 597 -4.9205239003369625
616 598 -1.6137264259361284
616 599 4.743983385861485E-2
616 607 -7.315330569940899
616 608 -1.6166315165993767E-1
616 609 4.7643443917502415E-1
616 613 -2.8750013399649715E-1
616 614 1.327498587401612
616 615 -1.2742266557779544E-1
616 616 3.0118564304840113E1
616 617 2.8485063646938746
616 618 -3.3534081272661784
616 622 -5.334889233500645
616 623 -9.604612138366883E-2
616 624 1.9199466158041867E-1
617 503 -2.2660125690573802
617 504 1.2759250806361255
617 530 1.6832721530057335
617 531 1.4324071758812689
617 532 -1.9464312590573978
617 545 1.8186172550468746E-1
617 546 -2.1026656100864454
617 547 1.72539505367747
617 548 1.4786422248153914
617 549 7.422599540732494E-2
617 550 -2.514697661050081E-1
617 569 -1.9984317268280982
617 570 -1.9057995423060559
617 571 -7.297153980648289
617 572 5.468871466643248E-1
617 584 -1.3526170163409155
617 585 1.7513620230597748
617 586 -2.805556243143004
617 588 -3.914970709664944E-1
617 589 4.2444019704966446E-1
617 590 1.3145270239462308
617 597 -1.6137264259361292
617 598 -9.393902122468283
617 599 6.403676292862892E-1
617 607 -1.6166315165993672E-1
617 608 -1.7770787945661932
617 609 -9.694318108675597E-2
617 613 1.3274985874016112
617 614 -3.252214891828874
617 615 -5.091897912841785E-1
617 616 2.8485063646938746
617 617 2.8641284801087597E1
617 618 -3.8563653926471355
617 622 -9.604612138367045E-2
617 623 -6.234692223830161
617 624 3.9628536991130403
618 503 1.9891458626645215
618 504 -8.299287650247184E-1
618 530 1.8666053147070292
618 531 -1.9464312590573967
618 532 -1.885528954879667
618 545 -4.1764666468795714E-1
618 546 9.709485539153525E-1
618 547 -2.9843996239548973
618 548 -2.135210805591014E-2
618 549 -2.514697661050074E-1
618 550 2.576592623989972
618 569 8.109289218174488E-1
618 570 3.517834192885553
618 571 4.5710708932888E-1
618 572 -8.444530142927716
618 584 -2.099790031509024
618 585 -2.8055562431430054
618 586 1.694807470103928
618 588 4.842068902730776E-1
618 589 4.2422954118136136E-1
618 590 2.6943004529563264
618 597 4.7439833858616E-2
618 598 6.403676292862903E-1
618 599 -7.289963812709487
618 607 -5.497030871211274E-1
618 608 -5.571746335303464E-2
618 609 -2.450360394452331
618 613 -4.7710979648194685E-1
618 614 4.7088774881613454E-1
618 615 1.3613518896422755E-1
618 616 -3.3534081272661784
618 617 -3.8563653926471355
618 618 2.9110262385260405E1
618 622 1.919946615804189E-1
618 623 3.96285369911304
618 624 -1.2327386427326049E1
619 85 -8.505169346818057
619 86 1.760517595171816
619 87 1.2399932375159188
619 368 -6.052367296327474E-1
619 369 6.069825580006889E-1
619 370 -1.5552678608782616E-1
619 378 -9.664357565312638
619 379 -3.588350171351881
619 380 -1.2703495918348842
619 381 -1.145091479269637E1
619 382 -1.7020281604654022
619 383 -4.903071305787564E-1
619 505 5.36666764581731
619 506 2.042991623286195
619 507 2.4555857700505372
619 610 -2.4011490845412493
619 611 -1.940665125264778
619 612 9.730769763229646E-1
619 613 -1.6781589646890897E1
619 614 -9.62931970529497E-1
619 615 -1.77321682485319
619 619 4.2222246198447735E1
619 620 4.205953324973746
619 621 1.0805587305468192
619 625 1.8195033216269132
619 626 -4.2246967382088807E-1
619 627 -2.0598143810815825
620 85 1.7605175951718137
620 86 -3.0649204474840266
620 87 -3.973919396071277E-1
620 368 6.069825580006881E-1
620 369 -4.706704531503853
620 370 -5.471976729842425E-1
620 378 -3.5883501713518795
620 379 -1.0327940497302473E1
620 380 2.3345803082689393E-1
620 381 -1.7020281604654006
620 382 -1.4138729942238012E1
620 383 1.5093674830266384
620 505 2.0429916232861944
620 506 8.726319075133201
620 507 7.241028063316421E-1
620 610 -1.9406651252647762
620 611 -4.280872391979435
620 612 2.019893096826094
620 613 -9.629319705294993E-1
620 614 -2.1432685611315808E1
620 615 -3.166602879866514
620 619 4.205953324973746
620 620 4.821165720431697E1
620 621 1.882069661109047
620 625 -4.2246967382088885E-1
620 626 1.013877142373433
620 627 -2.257698585662431
621 85 3.549814085464174E-1
621 86 -1.997713917437201E-1
621 87 -3.0031188704657845
621 368 -3.000563490581145E-1
621 369 3.556916528863908E-1
621 370 -7.301539302329132E-1
621 378 -3.8083484859439387E-1
621 379 6.425731835529013E-1
621 380 -7.547693517497627
621 381 -4.903071305787553E-1
621 382 1.5093674830266401
621 383 -1.6769508327864287E1
621 505 2.4555857700505377
621 506 7.241028063316415E-1
621 507 5.545392136002956
621 610 4.454956629690974E-1
621 611 1.1987580632777948
621 612 -2.1239992062196165
621 613 -1.1056088628000271
621 614 -3.855092872778264
621 615 -1.673966347616309E1
621 619 1.0805587305468192
621 620 1.882069661109047
621 621 4.048076841310036E1
621 625 -2.0598143810815817
621 626 -2.2576985856624314
621 627 8.879767793400059E-1
622 381 4.185065534008183
622 382 1.6257742396071442
622 383 2.7039602043313238E-2
622 485 -7.666831660396174
622 486 -1.6975364948338123E-2
622 503 -1.2202338599111584
622 504 -2.552490191175394
622 505 -1.9329659281228153E1
622 506 -5.897072634884097
622 507 -3.1182772475609258E-3
622 524 -3.7761633522122913
622 525 1.8914084518241263
622 526 8.20730035813733E-1
622 530 -3.606653060480515
622 531 1.906373657290229
622 532 -8.650353536366668E-1
622 551 2.685674748401394
622 552 -1.1032794176149054
622 553 2.545470878823027
622 554 -5.299036427428295
622 555 -9.676181199365681E-2
622 556 -1.9234275522430647E-1
622 557 1.1135354183925235
622 558 1.400174563867036
622 559 2.5902297702000308
622 569 2.5041292884696653
622 570 7.431238154440507E-1
622 571 1.393710949622994
622 572 -2.522785767165709
622 578 -3.4845756904590868
622 579 -7.292090626324931
622 580 5.527703540836654E-1
622 581 9.264712108347899E-1
622 582 7.3117608924468485
622 583 -1.2426438823358215
622 584 -7.380755293282524
622 585 5.486939837655143E-1
622 586 -9.692319304892809E-1
622 587 -3.7579615716842216
622 594 7.3735683692665335
622 595 -1.220075751409858
622 596 1.761219987608038
622 600 -1.1168921806648104E1
622 601 -1.5205039061819088
622 602 -2.474836946327168
622 603 5.302415368446011
622 604 2.524490674784016
622 605 -1.3367998555422569
622 606 -3.556109933489217E-1
622 607 -1.1167173470929015E1
622 608 -1.5208115704841396
622 609 2.44673441464797
622 610 5.256084671936624
622 611 2.495139023091479
622 612 1.3566826878941873
622 613 -7.847553787437756
622 614 -4.5333742527239074E-1
622 615 -1.2389655121747882E-1
622 616 -5.334889233500645
622 617 -9.604612138367045E-2
622 618 1.919946615804189E-1
622 622 8.151637988239784E1
622 623 4.386811020936433
622 624 1.6123965100474152E-1
622 625 -2.0879472727197935E1
622 626 -5.97994727935284E-1
622 627 -4.682413403994057E-2
622 640 -1.6970018055711904
622 646 -1.6996880688397513
622 686 1.6732141009747916
622 892 -1.692590814155807
622 956 -1.7083840019610181
623 381 1.6257742396071457
623 382 -2.2494588200568204
623 383 3.979102152366665E-2
623 485 -3.5561099334892343E-1
623 486 4.793219312208766
623 503 2.8468941089867354
623 504 -1.2631670232159755
623 505 -5.897072634884099
623 506 -1.608517274500911E1
623 507 2.7502738603816957E-2
623 524 1.891408451824127
623 525 -3.525446316301157
623 526 -6.076682621723859E-1
623 530 1.9063736572902292
623 531 -2.8596817470025826
623 532 5.799360071965536E-1
623 551 -1.103279417614906
623 552 2.9048146324977977
623 553 1.2210528577784356
623 554 -9.676181199365583E-2
623 555 -6.2020394649074975
623 556 -3.9465338572630486
623 557 1.4001745638670362
623 558 3.5995870639807324
623 559 1.7973662927819986E-1
623 569 -1.2202338599111575
623 570 1.3937109496229922
623 571 3.4574684102399242
623 572 -1.3242587664907246E-1
623 578 -1.6925908141558073
623 579 5.52770354083665E-1
623 580 -1.0046891576328216E1
623 581 -3.3257507431730664
623 582 -1.2426438823358221
623 583 3.430053845182425
623 584 5.486939837655143E-1
623 585 -1.0100142596190803E1
623 586 3.331105051026369
623 587 -1.7083840019610184
623 594 -1.2200757514098586
623 595 3.4515180758474697
623 596 1.0839733008009762
623 600 -1.5205039061819092
623 601 -8.670337598365753
623 602 -2.151763333719496
623 603 2.5244906747840177
623 604 8.493469615216684
623 605 1.3078514270364836
623 606 -1.2667251732340851E1
623 607 -1.520811570484141
623 608 -8.623703917459943
623 609 2.1500322737967656
623 610 2.4951390230914816
623 611 8.407789195133542
623 612 -1.310456978306643
623 613 -4.533374252723916E-1
623 614 -1.3051687152915308E1
623 615 -4.886707144728609
623 616 -9.604612138366883E-2
623 617 -6.234692223830161
623 618 3.96285369911304
623 622 4.386811020936433
623 623 8.175148617536283E1
623 624 3.614488299039029E-2
623 625 -5.979947279352843E-1
623 626 -1.5239985569356445E1
623 627 1.102521850530708E-2
623 640 -1.0149595990439613
623 646 -1.0900977111445116
623 686 1.005306109558
623 892 -1.0323931406315887
623 956 -1.7541965217518847
624 381 2.7039602043312544E-2
624 382 3.9791021523665676E-2
624 383 5.07639671527483
624 485 -1.697536494833965E-2
624 486 -1.5647031097687135E1
624 503 -1.2631670232159755
624 504 1.5291234606919157
624 505 -3.1182772475630977E-3
624 506 2.750273860381689E-2
624 507 -9.369544001359273
624 524 8.207300358137322E-1
624 525 -6.076682621723859E-1
624 526 -1.8705899407119277
624 530 -8.650353536366682E-1
624 531 5.799360071965525E-1
624 532 -1.5806287801868542
624 551 2.5454708788230263
624 552 1.2210528577784359
624 553 1.6204393113221502
624 554 -1.9234275522430644E-1
624 555 -3.9465338572630486
624 556 -1.2237431161346194E1
624 557 2.5902297702000316
624 558 1.797366292781994E-1
624 559 4.3191589281416585
624 569 -2.5524901911753934
624 570 -2.522785767165708
624 571 -1.3242587664907185E-1
624 572 4.0904565126802686
624 578 -1.6970018055711904
624 579 9.264712108347912E-1
624 580 -3.325750743173066
624 581 -6.172535326690725
624 582 -1.6996880688397509
624 583 -1.0900977111445118
624 584 -9.692319304892805E-1
624 585 3.3311050510263684
624 586 -6.2686589314075105
624 587 1.6732141009747912
624 594 1.7612199876080363
624 595 1.0839733008009773
624 596 4.659504371553851
624 600 -2.474836946327167
624 601 -2.151763333719495
624 602 -1.4692415729101782E1
624 603 -1.336799855542257
624 604 1.3078514270364816
624 605 3.798120171766349
624 606 4.793219312208764
624 607 2.4467344146479717
624 608 2.1500322737967648
624 609 -1.4677513003999275E1
624 610 1.3566826878941887
624 611 -1.3104569783066409
624 612 3.8077488639273094
624 613 -1.2389655121747739E-1
624 614 -4.886707144728608
624 615 -1.569926512423614E1
624 616 1.9199466158041867E-1
624 617 3.9628536991130403
624 618 -1.2327386427326049E1
624 622 1.6123965100474152E-1
624 623 3.614488299039029E-2
624 624 8.773788668750296E1
624 625 -4.6824134039940124E-2
624 626 1.1025218505307107E-2
624 627 -1.0757442697518387E1
624 640 1.8478735076112085E-1
624 646 4.5716847564533545
624 686 -9.486490850449952E-2
624 892 -1.0149595990439608
624 956 1.0053061095579998
625 83 -5.071531886964733E-1
625 85 -5.484212242681565E-1
625 86 1.251420203917144
625 87 1.1713326141277363
625 111 5.059755634039542
625 365 -1.161437009458283
625 366 -4.2573820060692985E-1
625 381 -1.4866453145471773E1
625 382 -5.45772379095572
625 383 9.4024451772854E-3
625 426 -3.9209330038167436
625 427 1.175578660371338
625 485 1.4878843698308093
625 486 2.344640677659114
625 492 1.783170826884726
625 493 2.0677007202538427
625 578 1.8199130849488054
625 587 1.830780700360275
625 600 2.929534037343261
625 601 2.3271684721645967
625 602 2.184140972886323
625 603 -1.0980346336055566E1
625 604 -2.5281901302995484
625 605 1.3387588374660724
625 606 6.165939751150764E-1
625 607 2.8773993924693135
625 608 2.3101234508350976
625 609 -2.1843644894756276
625 610 -1.0908003356089422E1
625 611 -2.4914932654436432
625 612 -1.3547003789970455
625 613 1.4372117388076386
625 614 6.063138772499581E-1
625 615 -2.348804272997593
625 619 1.8195033216269132
625 620 -4.2246967382088885E-1
625 621 -2.0598143810815817
625 622 -2.0879472727197935E1
625 623 -5.979947279352843E-1
625 624 -4.6824134039940124E-2
625 625 7.798872133145356E1
625 626 6.688292830618544
625 627 4.7984965353335615E-2
625 640 1.0049192127994604E-1
625 686 -8.675247108695872E-2
625 745 -3.734619760652212
625 746 3.9573219083617595
625 759 -1.0904608184652568E1
625 760 -4.588265039967998E-2
625 868 -3.6409723193774126
625 869 -1.2529845942162113E-1
625 873 -4.5106120235668945E-1
625 874 -1.1237905869153904
625 875 -2.8452683271865955
625 876 -9.91148521670785E-2
625 880 -4.2012542181899437E-1
625 881 -1.121679912034355
625 882 2.8525111584154708
625 883 -1.6132881937088097E1
625 884 -6.062124888189019
625 885 -1.9505102440835587E-2
625 892 2.102521758200437E-1
625 956 2.101192076581416E-1
626 83 1.1755786603713378
626 85 1.2514202039171436
626 86 -3.16156421204193
626 87 -3.618035420659347
626 111 -6.9052745688756625
626 365 3.6212994209316847
626 366 9.828111292572947E-1
626 381 -5.4577237909557175
626 382 -2.1956824094475806E1
626 383 1.9083946422367843E-2
626 426 -1.2792284986167357E-1
626 427 -3.0814744298815437
626 485 6.165939751150775E-1
626 486 1.2362935665372434
626 492 -4.257382006069299E-1
626 493 2.2664049860296163
626 578 2.102521758200438E-1
626 587 2.1011920765814268E-1
626 600 2.3271684721645967
626 601 3.3464174287195565
626 602 -2.274778776872596
626 603 -2.5281901302995493
626 604 -1.4176076838259261E1
626 605 -1.3097679871662478
626 606 6.567405254488254
626 607 2.3101234508350985
626 608 3.2724334733496527
626 609 2.2810951070491496
626 610 -2.491493265443646
626 611 -1.4055102784835563E1
626 612 1.3085422118320715
626 613 6.063138772499579E-1
626 614 6.488483854997341
626 615 -1.2460080032037402
626 619 -4.2246967382088807E-1
626 620 1.013877142373433
626 621 -2.2576985856624314
626 622 -5.97994727935284E-1
626 623 -1.5239985569356445E1
626 624 1.1025218505307107E-2
626 625 6.688292830618544
626 626 7.667885348094504E1
626 627 -1.6254193789692645E-2
626 640 -1.6347992179308766
626 686 1.6420223488191361
626 745 -9.911485216707888E-2
626 746 8.589934834341548E-2
626 759 5.059755634039541
626 760 3.8220637045234804E-2
626 868 -1.252984594216206E-1
626 869 -4.601182813831921E-1
626 873 -1.1237905869153897
626 874 -1.9852379313973427
626 875 -3.2044302901604778
626 876 -4.2488450836588054E-1
626 880 -1.1216799120343546
626 881 -1.9533767749630162
626 882 3.1859253173075786
626 883 -6.06212488818902
626 884 -9.011160552936232
626 885 -6.116783515721647E-3
626 892 -2.976623829637413
626 956 -2.9625773877212933
627 83 -1.161437009458285
627 85 1.1713326141277371
627 86 -3.618035420659348
627 87 -2.554857031506309
627 111 3.8220637045234714E-2
627 365 -2.590786601549048
627 366 2.2664049860296167
627 381 9.40244517728494E-3
627 382 1.9083946422367028E-2
627 383 -1.1117732595972463E1
627 426 -5.038542433795651
627 427 3.6212994209316864
627 485 2.3446406776591155
627 486 4.5864823705237
627 492 2.0677007202538435
627 493 8.552718192019096E-1
627 578 1.0049192127994583E-1
627 587 -8.675247108696027E-2
627 600 2.1841409728863237
627 601 -2.274778776872595
627 602 9.009371725996691E-1
627 603 1.3387588374660717
627 604 -1.3097679871662495
627 605 -1.797908770682137E1
627 606 1.2362935665372445
627 607 -2.184364489475628
627 608 2.281095107049149
627 609 8.006003587735973E-1
627 610 -1.354700378997044
627 611 1.3085422118320733
627 612 -1.7951181647237263E1
627 613 -2.3488042729975924
627 614 -1.246008003203742
627 615 4.517400004625358
627 619 -2.0598143810815825
627 620 -2.257698585662431
627 621 8.879767793400059E-1
627 622 -4.682413403994057E-2
627 623 1.102521850530708E-2
627 624 -1.0757442697518387E1
627 625 4.7984965353335615E-2
627 626 -1.6254193789692645E-2
627 627 7.339438310763937E1
627 640 1.4235621530456761
627 686 1.4271252705482267
627 745 3.9573219083617603
627 746 -4.966975739626006
627 759 -4.588265039968E-2
627 760 -3.130139999817186
627 868 -3.920933003816743
627 869 -1.2792284986167338E-1
627 873 -2.845268327186594
627 874 -3.2044302901604773
627 875 -3.949355733793619
627 876 8.589934834341653E-2
627 880 2.852511158415469
627 881 3.185925317307576
627 882 -3.896521809682954
627 883 -1.9505102440833977E-2
627 884 -6.116783515721008E-3
627 885 -4.86111503897725
627 892 -1.634799217930875
627 956 1.6420223488191357
628 628 7.6087794978626
628 629 4.856449346242839E-2
628 630 -4.930011580143502E-1
628 631 -5.156704482597787
628 632 -4.25445671358459E-1
628 633 3.7874885531212793E-1
628 650 6.588541667207038E-1
628 651 -3.3854166666523675E-2
628 652 -1.692708333315138E-1
628 657 -3.228878340027769
628 658 1.3699441101086185E-1
628 659 -2.2417065371160033E-1
628 660 -1.4583333333491505E-1
628 661 1.0416666666623998E-1
628 662 -6.249999999985777E-1
628 670 -6.815476191353149E-1
628 671 -2.7083333333820825E-1
628 672 3.125000000021314E-1
628 687 -1.896707077468975
628 688 -3.7784475603892004E-2
628 689 -2.3989709891938216E-2
628 693 2.8420371879814597
628 694 4.781920758275537E-1
628 695 8.441834996337182E-1
629 628 4.856449346242839E-2
629 629 8.508728954285871
629 630 -1.1906239218974184
629 631 -3.629456713583804E-1
629 632 -5.565677866178386
629 633 9.18584020161773E-1
629 650 -1.3020833333269147E-2
629 651 7.088541667205864E-1
629 652 1.9531250000515737E-1
629 657 1.3699441101086224E-1
629 658 -3.71251395836678
629 659 9.450807973494678E-1
629 660 2.0833333332906864E-2
629 661 -4.958333333369629E-1
629 662 1.0416666666737815
629 670 -1.0416666667154198E-1
629 671 -2.815476191587166E-1
629 672 3.720238095260245E-1
629 687 -2.04451142270558E-1
629 688 -2.8293347535925903
629 689 -2.5296136998736973E-1
629 693 4.7819207582755413E-1
629 694 3.6673244096269775
629 695 -2.029082501831416
630 628 -4.930011580143502E-1
630 629 -1.1906239218974184
630 630 1.4307127058012671E1
630 631 -3.7917811354539754E-2
630 632 1.4394173534931383
630 633 -1.1372996212702194E1
630 650 -6.510416666413651E-2
630 651 1.9531250001068048E-1
630 652 1.646354166801678
630 657 1.9249601295506338E-1
630 658 3.4984270210714674E-1
630 659 -4.260206850017191
630 660 -3.1249999999928835E-1
630 661 5.208333333368932E-1
630 662 -1.8333333333485444E-1
630 670 3.125000000021309E-1
630 671 9.672619047683447E-1
630 672 -1.7101190478105017
630 687 -4.406563765586031E-1
630 688 -2.529613699873699E-1
630 689 -3.286102320542562
630 693 8.441834996337184E-1
630 694 -2.0290825018314145
630 695 4.859276539592956
631 628 -5.156704482597787
631 629 -3.629456713583804E-1
631 630 -3.7917811354539754E-2
631 631 6.288852783239537
631 632 -1.4538984629364157E-1
631 633 5.192135989017564E-1
631 657 8.829945090266762E-1
631 658 6.470287757542981E-1
631 659 -1.0439560439535647
631 667 -3.497319332984423E-1
631 668 -1.3159455128517555E-1
631 669 6.313415750884949E-1
631 670 -3.6947278914685544E-1
631 671 -3.9583333333376103E-1
631 672 -3.125000000021334E-1
631 678 -9.770107811496158E-2
631 679 -4.212454212404598E-2
631 680 1.373626373642918E-1
631 687 2.6902349242961043E-1
631 688 1.2454212454262E-1
631 689 2.1062271062023052E-1
631 693 -1.4672605015377773
631 694 3.063170440980856E-1
631 695 -1.0416666666453347E-1
632 628 -4.25445671358459E-1
632 629 -5.565677866178386
632 630 1.4394173534931383
632 631 -1.4538984629364157E-1
632 632 7.154322183032659
632 633 -1.9709487042934826
632 657 6.470287757542974E-1
632 658 1.8458754898154328
632 659 5.995879120980924E-1
632 667 1.4238782048236573E-2
632 668 2.154664653451865E-1
632 669 -2.520623561534762E-1
632 670 -2.2916666666709373E-1
632 671 -7.204931973423606E-1
632 672 -6.271258503634486E-1
632 678 -1.2545787545737933E-1
632 679 -3.7119581586206507E-1
632 680 -7.907509157525805E-1
632 687 -4.2124542124046455E-2
632 688 -2.2450598764424257E-1
632 689 1.1861263736288727
632 693 3.063170440980843E-1
632 694 -2.3337912711662256
632 695 4.157561873428843E-1
633 628 3.7874885531212793E-1
633 629 9.18584020161773E-1
633 630 -1.1372996212702194E1
633 631 5.192135989017564E-1
633 632 -1.9709487042934826
633 633 1.2178864707230403E1
633 657 -1.043956043953565
633 658 5.995879120980927E-1
633 659 6.622793935990718E-1
633 667 2.8335622710397307E-1
633 668 -1.2660448069840136E-1
633 669 2.203876334825105E-1
633 670 -3.125000000021319E-1
633 671 -1.2223639456057696
633 672 -5.164115646712498E-1
633 678 6.868131868214658E-2
633 679 -3.9537545787628947E-1
633 680 -1.3397054113628326E-1
633 687 6.272893772868983E-1
633 688 1.1861263736288723
633 689 1.2719287081523638E-2
633 693 -5.208333333312013E-1
633 694 1.010994282585204
633 695 -1.0508727028837823
634 576 7.043414070057612E-1
634 577 4.578055034792472
634 582 -1.8998572148116062
634 583 -1.9126400830057175
634 600 -1.0581239846046955
634 601 -1.088800641390468
634 602 2.7467025916260384
634 634 2.165831016057873E1
634 635 -4.539339735946532E-1
634 636 4.914970187890517E-1
634 637 1.7106273613416607
634 646 -1.7706313059058278E1
634 829 2.714081735963155E-1
634 830 4.4330232479518505E-1
634 831 1.2965703185892212
634 838 1.4248929111078166
634 839 -5.361517584680797E-2
634 840 -5.71009542823851
634 873 1.0112726813010628
634 874 -2.4577984781337157
634 875 -3.9958019448388575
635 520 4.2760596135205997E-1
635 554 8.571599816969012E-1
635 555 -3.913451285315261E-1
635 556 -4.8380703740741426E-1
635 576 6.2383839067056995E-2
635 577 -8.525464827135533E-2
635 582 -1.8708171770210094
635 583 2.159182160893223E-1
635 600 -1.788260769459375
635 601 3.5808291167943795E-1
635 602 4.4268605896775254E-1
635 634 -4.539339735946532E-1
635 635 1.3639064196587874E1
635 636 1.632765976451406E-1
635 637 1.2946279249857469
635 638 6.319937552306533E-2
635 639 -1.1867201250275808E-1
635 643 -1.1327136032223507E1
635 644 -3.2387732413408515E-1
635 645 -2.0427028813447405
635 646 1.3618019208960663
636 520 -6.180062447638371E-2
636 554 -3.913451285315258E-1
636 555 4.345701706032552E-1
636 556 -4.179802948552834E-1
636 576 1.0224535172787634E-1
636 577 7.138351872525159E-1
636 582 3.409182160887715E-1
636 583 -1.775015256926506
636 600 3.5808291167943807E-1
636 601 -2.9075209212782855
636 602 -1.320256443349902
636 634 4.914970187890517E-1
636 635 1.632765976451406E-1
636 636 1.4160753527453013E1
636 637 4.675883327917474
636 638 8.442162052613169E-1
636 639 3.723013395019634E-1
636 643 -5.113773241333176E-1
636 644 -1.1470838912365307E1
636 645 -3.0710015106263175
636 646 -7.304434373769857E-1
637 520 -5.933600626285301E-1
637 554 -1.0025887215642668
637 555 -1.3018476475290945
637 556 2.6976939300366025
637 576 6.48477105622004E-2
637 577 4.0810246671158645E-1
637 582 1.3618019208960677
637 583 1.3604181685976435E-2
637 600 9.173741090935225E-1
637 601 -2.2142237060897862
637 602 -3.47235929839569
637 634 1.7106273613416607
637 635 1.2946279249857469
637 636 4.675883327917474
637 637 2.964518826987717E1
637 638 5.222209831788861E-1
637 639 1.998145281561964
637 643 -2.0427028813447423
637 644 -2.1037396058750417
637 645 -2.7071077644490803E1
637 646 -5.508217899930906
638 508 -7.475952642005557E-2
638 509 9.00028872427727E-1
638 510 2.4849300314276923E-1
638 520 2.4620983867627264E-1
638 527 -4.368006244747323E-1
638 554 1.818165423521002E-1
638 555 -2.103764594330494
638 556 -9.711799268866721E-1
638 557 -1.9806591789416453E-1
638 558 5.84251270202553E-1
638 559 -6.559542635669071E-1
638 635 6.319937552306533E-2
638 636 8.442162052613169E-1
638 637 5.222209831788861E-1
638 638 2.1946996978595735E1
638 639 5.057375187078041
638 641 -2.0444705880388934E1
638 642 -3.6400052039561035
638 643 2.1840031223751463E-1
638 644 -1.7270228517679027
638 645 -5.609497789900115E-1
639 508 -7.080848585130891E-1
639 509 3.3358180815254346E-1
639 510 2.2114900499622276
639 520 2.1490479877874447
639 527 -2.492112263131622
639 554 8.530039434839862E-1
639 555 -1.725911589049703
639 556 -2.9832089595751348
639 557 -9.292389286906164E-1
639 558 -1.5477012865520596
639 559 2.566812716667192
639 635 -1.1867201250275808E-1
639 636 3.723013395019634E-1
639 637 1.998145281561964
639 638 5.057375187078041
639 639 5.087244095449954E1
639 641 -2.5983385372940284
639 642 -4.95844811264187E1
639 643 1.2460561315666578
639 644 1.086930781632447E-1
639 645 -5.081198916697088
640 578 2.510598487639374
640 579 -1.5638300329130972
640 580 -2.633916941817931E-1
640 581 2.3154435233381326E-1
640 582 2.6868421315288686
640 583 -3.7065874748739085
640 587 -2.0275990421933052
640 600 2.644522106612709
640 601 3.143048379466572
640 602 -6.870230253951803E-1
640 622 -1.6970018055711904
640 623 -1.0149595990439613
640 624 1.8478735076112085E-1
640 625 1.0049192127994604E-1
640 626 -1.6347992179308766
640 627 1.4235621530456761
640 640 1.165725538888093E2
640 646 -1.6173958029005E1
640 653 -1.3020833332430146E-1
640 681 -1.2500000000307634
640 686 -8.400031892246591E1
640 835 -1.4354448391352252
640 836 -1.0836871238701367
640 837 1.0123305551870427
640 838 -3.177613974373548
640 839 -2.2308187750249173
640 840 -9.983918052634992
640 847 3.2875563450170677
640 848 9.768980572368274E-1
640 849 3.841618957911933E-1
640 873 -2.719449529410946
640 874 1.9690930005855969
640 875 -5.481603557186981
640 883 1.6708761481849512
640 884 -3.205670145301837E-1
640 885 1.155469412330053E-1
640 892 -3.467494808681296E-1
640 912 1.1002604166894652
640 913 1.9298735119214503
640 914 -1.8180896578856163
640 915 -5.5803571441815025E-2
640 916 3.4484002975755104
640 953 2.6785714285506725
640 954 -5.227976190162986
640 956 -4.012042599539717E-2
641 508 -3.1772798729349094E-1
641 509 -5.841969244269672E-1
641 510 3.782476039092795E-1
641 520 -3.11800624475283E-1
641 524 3.5487277542297435E-1
641 525 -3.071193682021591
641 526 -2.3125354289098117
641 527 1.4249399131058205
641 554 1.4784247560235317
641 555 6.168557682395176E-2
641 556 2.514327816573758E-1
641 557 -1.610555082343271
641 558 -6.257001173862677
641 559 -2.739039255911434E-1
641 560 -9.900509402688475E-1
641 561 -2.0017148397653046
641 562 -1.1234227601308255
641 638 -2.0444705880388934E1
641 639 -2.5983385372940284
641 641 3.1517416321985063E1
641 642 5.34411513271888
641 643 -2.8102810171434622E-2
641 644 7.797106016564626E-1
641 645 3.344051336402755E-1
642 508 6.944678420109709E-1
642 509 6.2027365810385926E-2
642 510 -1.6244663682409999
642 520 -2.4921122631316215
642 524 4.9949558810301664E-1
642 525 -1.549886619391168
642 526 -6.168821624380539
642 527 2.806380090718607
642 554 2.147286062882955E-2
642 555 2.514327816573782E-1
642 556 2.5702597182797544
642 557 -2.3391941103057142E-2
642 558 -2.739039255911412E-1
642 559 -5.275890968611277
642 560 -1.684320196035005
642 561 -5.281846648885042E-1
642 562 -3.871746333947742
642 638 -3.6400052039561035
642 639 -4.95844811264187E1
642 641 5.34411513271888
642 642 6.210479849207209E1
642 643 1.780080188082573E-1
642 644 3.344051336402748E-1
642 645 1.85034821124741
643 520 -1.7529575592625701
643 524 -7.965812885543071E-1
643 525 -7.652170309478404E-1
643 526 -1.4537321535126704
643 527 -9.787925676002773E-1
643 554 -4.906893783180086
643 555 -1.61373289181825
643 556 -4.807328512536837E-2
643 579 -4.732543315435791
643 580 7.326986968665685E-1
643 581 1.184065395152802
643 582 -1.1089236111449385
643 583 -6.932639448567158E-1
643 600 1.334548040825135
643 601 1.4765743341266888
643 602 4.398731619908884E-2
643 635 -1.1327136032223507E1
643 636 -5.113773241333176E-1
643 637 -2.0427028813447423
643 638 2.1840031223751463E-1
643 639 1.2460561315666578
643 641 -2.8102810171434622E-2
643 642 1.780080188082573E-1
643 643 2.4269280116576343E1
643 644 1.1840206586967874
643 645 6.978483266880215E-1
643 646 1.94543131567954E-1
644 520 1.5590031223774745E-1
644 524 -1.2027170309480744
644 525 -5.685475358221379E-1
644 526 -1.0940704960386969
644 527 -5.281028101714352E-1
644 554 -1.61373289181825
644 555 -9.353762410333436
644 556 -6.403701952211729E-1
644 579 1.0451986968673377
644 580 -6.720884532871745
644 581 -3.990876946188727
644 582 -1.9326394485671547E-1
644 583 7.541094701320744E-1
644 600 1.4765743341266881
644 601 6.705274024948229E-1
644 602 5.859421961325324E-1
644 635 -3.2387732413408515E-1
644 636 -1.1470838912365307E1
644 637 -2.1037396058750417
644 638 -1.7270228517679027
644 639 1.086930781632447E-1
644 641 7.797106016564626E-1
644 642 3.344051336402748E-1
644 643 1.1840206586967874
644 644 2.7636708768877167E1
644 645 6.245352292392992
644 646 5.546645429945942E-1
645 520 1.2460561315666567
645 524 -1.453732153512671
645 525 -4.2442763888544177E-1
645 526 -1.4344716112210976
645 527 1.7800801880825934E-1
645 554 -4.8073285125369306E-2
645 555 -6.403701952211731E-1
645 556 -7.275214777522164
645 579 1.1840653951528024
645 580 -3.0236150414374503
645 581 -1.0562945145909831E1
645 582 1.945431315679533E-1
645 583 5.546645429945931E-1
645 600 4.3987316199088626E-2
645 601 5.859421961325332E-1
645 602 3.5015745747385107
645 635 -2.0427028813447405
645 636 -3.0710015106263175
645 637 -2.7071077644490803E1
645 638 -5.609497789900115E-1
645 639 -5.081198916697088
645 641 3.344051336402755E-1
645 642 1.85034821124741
645 643 6.978483266880215E-1
645 644 6.245352292392992
645 645 4.408997008334494E1
645 646 1.9830152265101284
646 576 -1.8998572148116066
646 577 -2.8054972258471635
646 578 2.686842131528868
646 579 4.6220623772121294E-1
646 580 2.2699388483422184E-1
646 581 -9.150303216503872
646 582 -3.510647476230112
646 583 4.515982813428626
646 600 2.1580095847146823
646 601 2.8758223339818284E-1
646 602 -1.4437425007497932E1
646 622 -1.6996880688397513
646 623 -1.0900977111445116
646 624 4.5716847564533545
646 634 -1.7706313059058278E1
646 635 1.3618019208960663
646 636 -7.304434373769857E-1
646 637 -5.508217899930906
646 640 -1.6173958029005E1
646 643 1.94543131567954E-1
646 644 5.546645429945942E-1
646 645 1.9830152265101284
646 646 4.925158228471187E1
646 838 2.0355613016367655E-1
646 839 7.789053150355184E-1
646 840 2.0510637326882986
646 873 4.3233623289006526E-2
646 874 1.0756399167099784
646 875 5.118871211632347
646 892 -2.8137303320324607
647 647 1.6484188988055248E1
647 648 1.6015624999933148E-1
647 649 8.007812499593252E-1
647 650 1.0877976191286025
647 651 -1.0416666666560402E-2
647 652 -5.208333332103908E-2
647 653 3.142485118916754
647 654 -5.547061011703127
647 655 -2.460937499988588E-1
647 656 -6.054687499901583E-1
647 673 -7.696056547449041
647 674 -3.906249999979329E-2
647 675 -8.203124999963728E-1
647 676 -8.758184524152416
647 677 5.468749999974113E-1
647 903 1.2868303572039752
647 904 -5.468749999991403E-2
647 905 -2.7343749997602584E-1
647 915 1.640624999992742E-1
647 916 4.036458333268587E-1
647 928 2.604166666652063E-2
648 647 1.6015624999933148E-1
648 648 1.724936755947953E1
648 649 4.673549107125552
648 650 -5.208333333304115E-2
648 651 1.1985119048424862
648 652 3.3482142858893826E-1
648 653 1.6406249999927386E-1
648 654 -2.4609374999885836E-1
648 655 -6.371168154556293
648 656 -2.43210565470848
648 673 -1.015624999995344E-1
648 674 -7.546056547449447
648 675 -1.348586309503706
648 676 6.770833333300151E-2
648 677 -1.8787202381250347
648 903 7.812499999826639E-3
648 904 1.46897321434605
648 905 4.1852678571346097E-1
648 915 2.858556547489785
648 916 2.3251488090926836E-1
648 928 -8.858184524152113
649 647 8.007812499593252E-1
649 648 4.673549107125552
649 649 3.9682403273715956E1
649 650 -2.6041666665579477E-1
649 651 3.348214285771755E-1
649 652 2.8056547621066894
649 653 6.119791666616138E-1
649 654 -9.179687499922249E-1
649 655 -3.399367559476498
649 656 -1.2822061011405678E1
649 673 -8.203124999963733E-1
649 674 -3.8132440475250634E-1
649 675 -1.924248511862285E1
649 676 5.468749999974104E-1
649 677 -2.1893898810380872E1
649 903 3.9062500026041586E-2
649 904 4.185267857302787E-1
649 905 3.4779017858672483
649 915 -5.115327381419834E-1
649 916 7.992485118719509
649 928 -1.13467261906202
650 628 6.588541667207038E-1
650 629 -1.3020833333269147E-2
650 630 -6.510416666413651E-2
650 647 1.0877976191286025
650 648 -5.208333333304115E-2
650 649 -2.6041666665579477E-1
650 650 1.9491071428548285E1
650 651 1.8749999999904798E-1
650 652 9.374999999811224E-1
650 654 3.8311011903975745
650 655 1.09374999999482E-1
650 656 3.385416666626573E-1
650 657 -8.61458333317231
650 658 -2.1874999999896783E-1
650 659 -6.770833333253268E-1
650 670 -9.098958333290092
650 671 -2.6041666666520982E-2
650 672 -5.46874999997409E-1
650 673 -7.3552827383327655
650 674 1.302083333326931E-2
650 675 2.73437499998888E-1
651 628 -3.3854166666523675E-2
651 629 7.088541667205864E-1
651 630 1.9531250001068048E-1
651 647 -1.0416666666560402E-2
651 648 1.1985119048424862
651 649 3.348214285771755E-1
651 650 1.8749999999904798E-1
651 651 2.051964285711496E1
651 652 5.580357142841371
651 654 1.093749999994823E-1
651 655 3.641815476112364
651 656 5.022321428286252E-1
651 657 -2.1874999999896796E-1
651 658 -9.664583333167354
651 659 -3.38541666662661
651 670 -6.770833333300214E-2
651 671 -8.998958333290394
651 672 -1.6927083333250321
651 673 3.385416666652424E-2
651 674 -7.40528273833265
651 675 -1.5345982143062105
652 628 -1.692708333315138E-1
652 629 1.9531250000515737E-1
652 630 1.646354166801678
652 647 -5.208333332103908E-2
652 648 3.3482142858893826E-1
652 649 2.8056547621066894
652 650 9.374999999811224E-1
652 651 5.580357142841371
652 652 4.73053571428059E1
652 654 4.427083333300351E-1
652 655 -1.6741071431913607E-1
652 656 9.668601190279611
652 657 -8.854166666600838E-1
652 658 -4.427083333300391
652 659 -2.028958333293666E1
652 670 -5.4687499999741E-1
652 671 -6.510416666630137E-1
652 672 -2.27489583332254E1
652 673 2.7343749999889055E-1
652 674 -8.649553571529256E-1
652 675 -1.838742559583183E1
653 578 1.2340029761713238
653 579 1.105505952362388
653 580 -5.250000000002965E-1
653 581 3.1249999988766652E-2
653 640 -1.3020833332430146E-1
653 647 3.142485118916754
653 648 1.6406249999927386E-1
653 649 6.119791666616138E-1
653 653 2.927372212719915E1
653 654 -5.934895833048294
653 655 -8.072916667493897E-2
653 656 -9.765624999862831E-1
653 663 -1.1344246032640406
653 664 1.8593750000654068
653 665 4.739583333517171E-1
653 666 -1.2760416666834862
653 676 -9.51917989388228
653 677 -2.0833333324412306E-1
653 681 -1.6088293650844907E1
653 892 4.374999999998047E-1
653 903 -4.065476190258447
653 904 -2.9166666666533203E-1
653 905 -1.041666666657926
653 912 -4.278645833130032
653 913 4.3749999998543426E-1
653 914 -1.11979166662409
653 915 -2.5297618380142467E-3
653 916 2.3980654760885334
653 926 -1.2499999996483338E-1
653 927 6.249999999736972E-1
653 928 2.916666666044457E-1
653 929 3.6836734691494497
653 930 -6.428571428660648E-1
653 931 7.142857142606519E-1
653 950 7.221513605635318E-1
653 951 1.9642857142812678E-1
653 952 1.8303571428517897
653 953 -3.3333333335932175E-1
653 954 -1.4583333333048425
654 524 2.5729294106615903
654 525 -4.012275376867209E-1
654 526 6.55083496225434E-1
654 579 7.732345779405133E-1
654 580 5.170454545455943E-1
654 581 -2.2490530302112272E-1
654 647 -5.547061011703127
654 648 -2.4609374999885836E-1
654 649 -9.179687499922249E-1
654 650 3.8311011903975745
654 651 1.093749999994823E-1
654 652 4.427083333300351E-1
654 653 -5.934895833048294
654 654 3.0205534706155408E1
654 655 -5.437025051597809E-2
654 656 1.0391926843776766
654 657 -5.381093144169842
654 658 7.073453181897158E-1
654 659 7.777946166601756E-1
654 664 -7.332217261843537
654 665 -4.1927083333225085E-1
654 666 1.5494791666630907
654 667 -3.113213445811818
654 668 3.9379591791431967E-1
654 669 -9.970482454432861E-1
654 673 -5.25446428565661
654 674 2.187500000030497E-1
654 675 -1.562499999988443E-1
654 676 5.270833333150424
654 677 3.1249999999170314E-1
654 681 1.2964015151416062
654 682 -1.1172614479396064E1
654 683 -2.272727272724797E-1
654 684 -9.943181818164624E-1
654 690 -2.0660280226643817
654 691 -4.4197006785574583E-1
654 692 -4.01342442563527E-2
654 693 1.8515527508465568
654 694 -1.9848341791483923E-1
654 695 -2.0888892545529147
654 915 -8.072916667493925E-2
654 916 -1.8098958333196173
654 928 -4.3750000000704126E-1
654 953 5.606060606066917E-1
654 954 2.4526515151527106
655 524 -4.0122753768672104E-1
655 525 2.051464959907264
655 526 7.862298673060075E-2
655 579 5.170454545455947E-1
655 580 -3.657264610290528E-1
655 581 1.3105384199054664
655 647 -2.460937499988588E-1
655 648 -6.371168154556293
655 649 -3.399367559476498
655 650 1.09374999999482E-1
655 651 3.641815476112364
655 652 -1.6741071431913607E-1
655 653 -8.072916667493897E-2
655 654 -5.437025051597809E-2
655 655 3.436025817211882E1
655 656 3.4809022094303956
655 657 7.073453181897162E-1
655 658 -5.247374078365354
655 659 -1.7144539384341244
655 664 -4.192708333322518E-1
655 665 -7.201860119007926
655 666 2.836681547650514
655 667 3.937959179143212E-1
655 668 -3.00870732551213
655 669 2.619841190376439
655 673 2.1875000000304962E-1
655 674 -9.383035714172644
655 675 -7.812499999942095E-1
655 676 -4.3750000000704203E-1
655 677 1.5624999999585172
655 681 5.606060606066919E-1
655 682 -2.272727272724788E-1
655 683 -1.2072125359628194E1
655 684 -4.144423758103022
655 690 -4.4197006785574555E-1
655 691 -1.7467236361712202
655 692 7.366894294480721E-1
655 693 -1.9848341791483998E-1
655 694 2.889252315995374
655 695 -8.97799737487746E-1
655 915 -5.022395833017311
655 916 -7.16145833264757E-1
655 928 5.670833333088396
655 953 1.8054924242379027
655 954 -8.049242424205131E-1
656 524 3.070981482409151E-1
656 525 -7.164777458777523E-1
656 526 6.179900643834692
656 579 2.95928030310144E-1
656 580 3.4327651513745194E-1
656 581 2.7498883929127715
656 647 -6.054687499901583E-1
656 648 -2.43210565470848
656 649 -1.2822061011405678E1
656 650 3.385416666626573E-1
656 651 5.022321428286252E-1
656 652 9.668601190279611
656 653 -9.765624999862831E-1
656 654 1.0391926843776766
656 655 3.4809022094303956
656 656 6.069717895354737E1
656 657 2.9244663131136234E-1
656 658 -1.5145913010680998
656 659 -1.0623062712624403E1
656 664 1.5494791666630892
656 665 2.8366815476505094
656 666 -1.8083556547445426E1
656 667 -9.970482454432898E-1
656 668 2.6198411903764356
656 669 -8.241956060952116
656 673 -1.562499999988429E-1
656 674 -7.8124999999421E-1
656 675 -9.20446428562824
656 676 3.1249999999170375E-1
656 677 1.3170833332944426E1
656 681 2.4526515151527115
656 682 -9.943181818164639E-1
656 683 -4.144423758103018
656 684 -2.79437705602577E1
656 690 -7.693009109223081E-1
656 691 6.622846675426409E-1
656 692 -2.8339235113634316
656 693 -2.088889254552911
656 694 -8.977997374877451E-1
656 695 4.477017175545357
656 915 -7.161458332647599E-1
656 916 -9.827083332689407
656 928 1.5624999999585194
656 953 -8.049242424205122E-1
656 954 2.636458333302169
657 628 -3.228878340027769
657 629 1.3699441101086224E-1
657 630 1.9249601295506338E-1
657 631 8.829945090266762E-1
657 632 6.470287757542974E-1
657 633 -1.043956043953565
657 650 -8.61458333317231
657 651 -2.1874999999896796E-1
657 652 -8.854166666600838E-1
657 654 -5.381093144169842
657 655 7.073453181897162E-1
657 656 2.9244663131136234E-1
657 657 2.5310771425079263E1
657 658 -1.3080242929356367E-1
657 659 -8.16982435467633E-2
657 660 -9.991054946106875E-2
657 661 -2.364796182708653E-1
657 662 9.706959706976315E-1
657 667 -4.197998779475605
657 668 -3.3910841791379925E-1
657 669 1.2704857454458858
657 670 -5.238095238058146
657 671 -1.165734160335229E-15
657 672 1.8041124079129348E-15
657 673 5.270833333254724
657 674 -4.375000000061101E-1
657 675 3.1249999999768907E-1
657 687 2.15811570057505
657 688 -4.299505151293662E-1
657 689 -7.623353364460386E-1
657 690 1.0822812452215441E-1
657 691 2.847925759325744E-1
657 692 -3.4173103653281645E-1
657 693 -6.970383708093129
657 694 1.642989972522377E-2
657 695 7.651296673163084E-2
658 628 1.3699441101086185E-1
658 629 -3.71251395836678
658 630 3.4984270210714674E-1
658 631 6.470287757542981E-1
658 632 1.8458754898154328
658 633 5.995879120980927E-1
658 650 -2.1874999999896783E-1
658 651 -9.664583333167354
658 652 -4.427083333300391
658 654 7.073453181897158E-1
658 655 -5.247374078365354
658 656 -1.5145913010680998
658 657 -1.3080242929356367E-1
658 658 3.463764651974648E1
658 659 3.5044658010670506
658 660 -2.364796182708656E-1
658 661 6.900104336348671E-2
658 662 7.907509157525866E-1
658 667 -3.3910841791380064E-1
658 668 -3.3257191854883486
658 669 2.31877488109049
658 670 2.2065682692030913E-15
658 671 -1.3095238095145394E1
658 672 -2.510260151685399E-14
658 673 -4.3750000000610983E-1
658 674 5.6708333331988925
658 675 1.562499999988439
658 687 -4.2995051512936644E-1
658 688 2.758917792522175
658 689 -1.6156069861311795
658 690 2.8479257593257346E-1
658 691 -1.7130430564171386
658 692 9.325437085142426E-1
658 693 1.6429899725223428E-2
658 694 -8.223802471696104
658 695 -2.5011843001183527
659 628 -2.2417065371160033E-1
659 629 9.450807973494678E-1
659 630 -4.260206850017191
659 631 -1.0439560439535647
659 632 5.995879120980924E-1
659 633 6.622793935990718E-1
659 650 -6.770833333253268E-1
659 651 -3.38541666662661
659 652 -2.028958333293666E1
659 654 7.777946166601756E-1
659 655 -1.7144539384341244
659 656 -1.0623062712624403E1
659 657 -8.16982435467633E-2
659 658 3.5044658010670506
659 659 4.702116783926939E1
659 660 4.853479853488171E-1
659 661 3.9537545787629286E-1
659 662 -8.831287456469791E-3
659 667 1.2704857454458838
659 668 2.3187748810904854
659 669 -1.1062078966553855E1
659 670 2.84494648640051E-15
659 671 -2.3559850442704223E-14
659 672 -5.238095238058117
659 673 3.1249999999768796E-1
659 674 1.5624999999884353
659 675 1.3170833333198145E1
659 687 -7.623353364460381E-1
659 688 -1.6156069861311786
659 689 5.1814426231069355
659 690 -1.333977032009068E-1
659 691 -1.0912295815953887E-1
659 692 1.6334626148557008
659 693 7.651296673162786E-2
659 694 -2.5011843001183487
659 695 -1.618732741638255E1
660 511 -9.770107811495686E-2
660 512 1.2545787545737774E-1
660 513 -6.868131868215073E-2
660 628 -1.4583333333491505E-1
660 629 2.0833333332906864E-2
660 630 -3.1249999999928835E-1
660 657 -9.991054946106875E-2
660 658 -2.364796182708656E-1
660 659 4.853479853488171E-1
660 660 1.4075960639012935E1
660 661 -2.213293273860994E-1
660 662 -2.4999999999999982
660 687 -1.2985920329729986E1
660 688 1.142720766408549E-16
660 689 1.6666666666666672
660 690 -7.465953483720087E-1
660 691 3.1151773686667994E-1
660 692 7.29166666665952E-1
661 511 4.2124542124044095E-2
661 512 -3.711958158620641E-1
661 513 -3.953754578762912E-1
661 628 1.0416666666623998E-1
661 629 -4.958333333369629E-1
661 630 5.208333333368932E-1
661 657 -2.364796182708653E-1
661 658 6.900104336348671E-2
661 659 3.9537545787629286E-1
661 660 -2.213293273860994E-1
661 661 1.422612796093788E1
661 662 -1.1657341758564144E-15
661 687 6.537501178381104E-17
661 688 -1.2985920329729986E1
661 689 -5.052255931818219E-15
661 690 3.1151773686667994E-1
661 691 -4.42179525372355E-1
661 692 -5.208333333368886E-1
662 511 -1.3736263736429902E-1
662 512 -7.907509157525852E-1
662 513 -1.3397054113627394E-1
662 628 -6.249999999985777E-1
662 629 1.0416666666737815
662 630 -1.8333333333485444E-1
662 657 9.706959706976315E-1
662 658 7.907509157525866E-1
662 659 -8.831287456469791E-3
662 660 -2.4999999999999982
662 661 -1.1657341758564144E-15
662 662 3.31305859501795E1
662 687 8.333333333333337E-1
662 688 -3.110106808497953E-15
662 689 -3.246480082432497E1
662 690 1.4583333333319077
662 691 -1.0416666666737784
662 692 -3.3964996392693764E-1
663 653 -1.1344246032640406
663 663 1.3929315476044811E1
663 664 9.951636905164443E-1
663 665 1.3020833333130824E-2
663 666 -6.510416670938002E-2
663 676 -7.849578372490399
663 677 8.203125000748036E-1
663 681 3.608630960365554E-2
663 915 -1.2499999996483335E-1
663 916 6.249999999736968E-1
663 923 1.255952380940696
663 924 -4.1666666666640345E-2
663 925 2.0833333329432827E-1
663 926 -2.1679687495592767E-1
663 927 1.083984375058154
663 928 3.307291666194272E-1
663 929 -7.264415922989816
663 930 -1.6341145834507026E-1
663 931 -2.275390625035447
663 950 3.1901041638646224E-2
663 951 6.406249999985535E-1
663 952 -1.1067708333940363E-1
663 953 -4.3750000001863965E-1
663 954 -2.8645833331675186E-1
664 653 1.8593750000654068
664 654 -7.332217261843537
664 655 -4.192708333322518E-1
664 656 1.5494791666630892
664 663 9.951636905164443E-1
664 664 1.3687351190582412E1
664 665 2.4791666670019813E-1
664 666 -4.7395833330134407E-1
664 667 -2.752976190124476E-1
664 668 -3.1250000009747814E-2
664 669 1.5624999998639655E-1
664 673 -3.2522321427617453
664 674 3.177083333351827E-1
664 675 5.468750000066472E-1
664 676 -6.38839285749195
664 677 -1.0937499999735976
664 681 -1.0392857143487422
664 682 1.7455357142941594
664 683 -4.3749999999950584E-1
664 684 5.208333332876813E-2
664 915 4.7395833335171794E-1
664 916 -1.2760416666834873
664 926 -9.114583333379497E-2
664 927 4.5572916662188545E-1
664 928 -4.68750000032766E-1
664 953 4.083333333209679E-1
664 954 8.3333333351642E-2
665 653 4.739583333517171E-1
665 654 -4.1927083333225085E-1
665 655 -7.201860119007926
665 656 2.8366815476505094
665 663 1.3020833333130824E-2
665 664 2.4791666670019813E-1
665 665 1.386020833341587E1
665 666 -1.041666666719621
665 667 -1.5625000000993375E-1
665 668 4.925595238453895E-1
665 669 -1.116071428489043E-1
665 673 2.135416666682561E-1
665 674 -4.02187499985444
665 675 -1.8043154761210447
665 676 -3.4375000003257916E-1
665 677 -8.556547619173647E-1
665 681 4.0833333332096755E-1
665 682 -4.374999999995056E-1
665 683 9.883928571458118E-1
665 684 -2.604166666763399E-1
665 915 2.1343750000492845
665 916 1.4322916666020071
665 926 1.3523065476586384
665 927 -4.185267857134606E-1
665 928 -6.113392857491208
665 953 -1.4907142857614195
665 954 2.2321428574421837E-1
666 653 -1.2760416666834862
666 654 1.5494791666630907
666 655 2.836681547650514
666 656 -1.8083556547445426E1
666 663 -6.510416670938002E-2
666 664 -4.7395833330134407E-1
666 665 -1.041666666719621
666 666 2.7266458333516752E1
666 667 7.812499999849745E-1
666 668 -1.1160714283714149E-1
666 669 1.4970238095896045
666 673 5.468750000066461E-1
666 674 -2.7715773808722446
666 675 -7.459374999812867
666 676 -1.093749999973599
666 677 -1.2899107143567136E1
666 681 -5.416666666469356E-1
666 682 5.729166666600326E-1
666 683 7.06845238091673E-1
666 684 4.727232142884187
666 915 1.4322916666020082
666 916 1.9781250000742383
666 926 -4.185267857302783E-1
666 927 3.361235119142351
666 928 -1.5997023809803819
666 953 9.672619047954715E-1
666 954 -3.880357143817037E-1
667 631 -3.497319332984423E-1
667 632 1.4238782048236573E-2
667 633 2.8335622710397307E-1
667 654 -3.113213445811818
667 655 3.937959179143212E-1
667 656 -9.970482454432898E-1
667 657 -4.197998779475605
667 658 -3.3910841791380064E-1
667 659 1.2704857454458838
667 664 -2.752976190124476E-1
667 665 -1.5625000000993375E-1
667 666 7.812499999849745E-1
667 667 1.1912384578530459E1
667 668 6.646698423612417E-1
667 669 -1.3889609300819876
667 670 -1.8493303571120083
667 671 3.04687500000893E-1
667 672 2.7343750000259825E-1
667 673 -1.844928075495894
667 674 -4.2838541666795676E-1
667 675 -6.835937500056496E-1
667 682 2.572929410661588
667 683 4.012275376867219E-1
667 684 -3.0709814824091036E-1
667 693 -2.8548137789858314
667 694 -8.54875745419724E-1
667 695 7.681716012344102E-1
668 631 -1.3159455128517555E-1
668 632 2.154664653451865E-1
668 633 -1.2660448069840136E-1
668 654 3.9379591791431967E-1
668 655 -3.00870732551213
668 656 2.6198411903764356
668 657 -3.3910841791379925E-1
668 658 -3.3257191854883486
668 659 2.3187748810904854
668 664 -3.1250000009747814E-2
668 665 4.925595238453895E-1
668 666 -1.1160714283714149E-1
668 667 6.646698423612417E-1
668 668 1.2724796824825246E1
668 669 -2.9062887801552875
668 670 1.796875000007064E-1
668 671 -2.56897321421775
668 672 -1.4601934523556128
668 673 -2.8255208333454407E-1
668 674 -2.307725694587313
668 675 -1.1114211310172177
668 682 4.0122753768672137E-1
668 683 2.051464959907267
668 684 -7.164777458777534E-1
668 693 -8.548757454197239E-1
668 694 -4.273162354117547
668 695 1.4939766614744925
669 631 6.313415750884949E-1
669 632 -2.520623561534762E-1
669 633 2.203876334825105E-1
669 654 -9.970482454432861E-1
669 655 2.619841190376439
669 656 -8.241956060952116
669 657 1.2704857454458858
669 658 2.31877488109049
669 659 -1.1062078966553855E1
669 664 1.5624999998639655E-1
669 665 -1.116071428489043E-1
669 666 1.4970238095896045
669 667 -1.3889609300819876
669 668 -2.9062887801552875
669 669 2.3594018937797532E1
669 670 2.7343750000259726E-1
669 671 -2.5018601190176315
669 672 -3.9529017856747464
669 673 -6.835937500056504E-1
669 674 -1.781063988170499
669 675 -4.0264756946472975
669 682 -6.550834962254319E-1
669 683 7.862298673059831E-2
669 684 6.179900643834696
669 693 1.393171601232987
669 694 2.5356433281482706
669 695 -4.2079185168763305
670 628 -6.815476191353149E-1
670 629 -1.0416666667154198E-1
670 630 3.125000000021309E-1
670 631 -3.6947278914685544E-1
670 632 -2.2916666666709373E-1
670 633 -3.125000000021319E-1
670 650 -9.098958333290092
670 651 -6.770833333300214E-2
670 652 -5.4687499999741E-1
670 657 -5.238095238058146
670 658 2.2065682692030913E-15
670 659 2.84494648640051E-15
670 667 -1.8493303571120083
670 668 1.796875000007064E-1
670 669 2.7343750000259726E-1
670 670 1.672438350334622E1
670 671 4.6875000009019785E-2
670 672 2.343749999920989E-1
670 673 5.130208333961978E-1
670 674 1.744791666619072E-1
670 675 3.906250000271176E-2
671 628 -2.7083333333820825E-1
671 629 -2.815476191587166E-1
671 630 9.672619047683447E-1
671 631 -3.9583333333376103E-1
671 632 -7.204931973423606E-1
671 633 -1.2223639456057696
671 650 -2.6041666666520982E-2
671 651 -8.998958333290394
671 652 -6.510416666630137E-1
671 657 -1.165734160335229E-15
671 658 -1.3095238095145394E1
671 659 -2.3559850442704223E-14
671 667 3.04687500000893E-1
671 668 -2.56897321421775
671 669 -2.5018601190176315
671 670 4.6875000009019785E-2
671 671 2.501468962572811E1
671 672 3.212691326504534
671 673 3.411458333285742E-1
671 674 6.505208334265106E-1
671 675 1.953125000135597E-1
672 628 3.125000000021314E-1
672 629 3.720238095260245E-1
672 630 -1.7101190478105017
672 631 -3.125000000021334E-1
672 632 -6.271258503634486E-1
672 633 -5.164115646712498E-1
672 650 -5.46874999997409E-1
672 651 -1.6927083333250321
672 652 -2.27489583332254E1
672 657 1.8041124079129348E-15
672 658 -2.510260151685399E-14
672 659 -5.238095238058117
672 667 2.7343750000259825E-1
672 668 -1.4601934523556128
672 669 -3.9529017856747464
672 670 2.343749999920989E-1
672 671 3.212691326504534
672 672 3.257846513597493E1
672 673 3.9062500002711394E-2
672 674 1.953125000135604E-1
672 675 1.5880208334650825
673 647 -7.696056547449041
673 648 -1.015624999995344E-1
673 649 -8.203124999963733E-1
673 650 -7.3552827383327655
673 651 3.385416666652424E-2
673 652 2.7343749999889055E-1
673 654 -5.25446428565661
673 655 2.1875000000304962E-1
673 656 -1.562499999988429E-1
673 657 5.270833333254724
673 658 -4.3750000000610983E-1
673 659 3.1249999999768796E-1
673 664 -3.2522321427617453
673 665 2.135416666682561E-1
673 666 5.468750000066461E-1
673 667 -1.844928075495894
673 668 -2.8255208333454407E-1
673 669 -6.835937500056504E-1
673 670 5.130208333961978E-1
673 671 3.411458333285742E-1
673 672 3.9062500002711394E-2
673 673 1.859306795628969E1
673 674 -1.6796874998243422E-1
673 675 4.10156249990711E-1
673 676 1.0260416667554444
673 677 7.81250000042194E-2
673 928 1.822916666562187E-1
674 647 -3.906249999979329E-2
674 648 -7.546056547449447
674 649 -3.8132440475250634E-1
674 650 1.302083333326931E-2
674 651 -7.40528273833265
674 652 -8.649553571529256E-1
674 654 2.187500000030497E-1
674 655 -9.383035714172644
674 656 -7.8124999999421E-1
674 657 -4.375000000061101E-1
674 658 5.6708333331988925
674 659 1.5624999999884353
674 664 3.177083333351827E-1
674 665 -4.02187499985444
674 666 -2.7715773808722446
674 667 -4.2838541666795676E-1
674 668 -2.307725694587313
674 669 -1.781063988170499
674 670 1.744791666619072E-1
674 671 6.505208334265106E-1
674 672 1.953125000135604E-1
674 673 -1.6796874998243422E-1
674 674 2.3041579860981294E1
674 675 4.431733630919294
674 676 3.4895833332288595E-1
674 677 3.906250000210946E-1
674 928 1.3010416667897944
675 647 -8.203124999963728E-1
675 648 -1.348586309503706
675 649 -1.924248511862285E1
675 650 2.73437499998888E-1
675 651 -1.5345982143062105
675 652 -1.838742559583183E1
675 654 -1.562499999988443E-1
675 655 -7.812499999942095E-1
675 656 -9.20446428562824
675 657 3.1249999999768907E-1
675 658 1.562499999988439
675 659 1.3170833333198145E1
675 664 5.468750000066472E-1
675 665 -1.8043154761210447
675 666 -7.459374999812867
675 667 -6.835937500056496E-1
675 668 -1.1114211310172177
675 669 -4.0264756946472975
675 670 3.906250000271176E-2
675 671 1.953125000135597E-1
675 672 1.5880208334650825
675 673 4.10156249990711E-1
675 674 4.431733630919294
675 675 4.038532986101705E1
675 676 7.812500000421921E-2
675 677 3.1760416668628086
675 928 3.906250000210948E-1
676 647 -8.758184524152416
676 648 6.770833333300151E-2
676 649 5.468749999974104E-1
676 653 -9.51917989388228
676 654 5.270833333150424
676 655 -4.3750000000704203E-1
676 656 3.1249999999170375E-1
676 663 -7.849578372490399
676 664 -6.38839285749195
676 665 -3.4375000003257916E-1
676 666 -1.093749999973599
676 673 1.0260416667554444
676 674 3.4895833332288595E-1
676 675 7.812500000421921E-2
676 676 2.8416997354205556E1
676 677 5.208333331939033E-1
676 681 2.5555555554839198
676 903 -6.293154761639396
676 904 -1.354166666663205E-1
676 905 -1.0937499999968054
676 915 2.91666666604446E-1
676 916 -2.0833333324411984E-1
676 926 2.4739583328580078E-1
676 927 8.203125000748035E-1
676 928 -2.291666665314396E-1
676 929 1.5390625000610942
676 930 1.9010416665106514E-1
676 931 1.1718750000271752E-1
676 953 4.018153865192886E-11
676 954 -5.023359506139968E-11
677 647 5.468749999974113E-1
677 648 -1.8787202381250347
677 649 -2.1893898810380872E1
677 653 -2.0833333324412306E-1
677 654 3.1249999999170314E-1
677 655 1.5624999999585172
677 656 1.3170833332944426E1
677 663 8.203125000748036E-1
677 664 -1.0937499999735976
677 665 -8.556547619173647E-1
677 666 -1.2899107143567136E1
677 673 7.81250000042194E-2
677 674 3.906250000210946E-1
677 675 3.1760416668628086
677 676 5.208333331939033E-1
677 677 5.74423941796534E1
677 681 -5.0231874215711514E-11
677 903 -1.0937499999968054
677 904 -1.0044642856887214
677 905 -1.5736011904097737E1
677 915 1.3392857143117016
677 916 -1.6206481481063296E1
677 926 -3.6272321426211906E-1
677 927 -1.5225768848366256E1
677 928 1.6517857142740218
677 929 1.1718750000271717E-1
677 930 5.859375000135847E-1
677 931 4.76406250013139
677 953 -1.42857142858568
677 954 3.407936507883269
678 514 -1.4583333333489812E-1
678 515 -2.083333333290715E-2
678 516 3.1249999999928907E-1
678 528 -9.991054946105421E-2
678 529 2.3647961827086597E-1
678 631 -9.770107811496158E-2
678 632 -1.2545787545737933E-1
678 633 6.868131868214658E-2
678 678 1.4075960639012845E1
678 679 2.213293273861024E-1
678 680 2.4999999999999973
678 685 -4.8534798534880985E-1
678 687 -1.2985920329729899E1
678 688 -1.0171409037460745E-16
678 689 -1.6666666666666659
678 693 -7.465953483720318E-1
678 694 -3.115177368666818E-1
678 695 -7.291666666659571E-1
679 514 -1.0416666666624039E-1
679 515 -4.958333333369458E-1
679 516 5.208333333368881E-1
679 528 2.3647961827086567E-1
679 529 6.900104336350099E-2
679 631 -4.212454212404598E-2
679 632 -3.7119581586206507E-1
679 633 -3.9537545787628947E-1
679 678 2.213293273861024E-1
679 679 1.4226127960937784E1
679 680 2.248201624865942E-15
679 685 3.9537545787629186E-1
679 687 -4.4563457523648044E-17
679 688 -1.2985920329729899E1
679 689 -2.8112977670569396E-15
679 693 -3.115177368666817E-1
679 694 -4.421795253723761E-1
679 695 -5.2083333333689E-1
680 514 6.249999999985781E-1
680 515 1.0416666666737762
680 516 -1.8333333333481255E-1
680 528 -9.706959706976197E-1
680 529 7.907509157525837E-1
680 631 1.373626373642918E-1
680 632 -7.907509157525805E-1
680 633 -1.3397054113628326E-1
680 678 2.4999999999999973
680 679 2.248201624865942E-15
680 680 3.313058595017926E1
680 685 -8.831287456443772E-3
680 687 -8.333333333333331E-1
680 688 -1.8755928260039762E-15
680 689 -3.246480082432475E1
680 693 -1.4583333333319142
680 694 -1.04166666667378
680 695 -3.3964996392697366E-1
681 578 -1.5297619046261008
681 579 -2.4883658008522898
681 580 -4.772727272724817E-1
681 581 1.8181818181773275
681 584 -3.005952380223607E-1
681 585 -4.375000000049824E-1
681 586 -4.166666666768014E-1
681 587 -2.440476190623232
681 640 -1.2500000000307634
681 653 -1.6088293650844907E1
681 654 1.2964015151416062
681 655 5.606060606066919E-1
681 656 2.4526515151527115
681 663 3.608630960365554E-2
681 664 -1.0392857143487422
681 665 4.0833333332096755E-1
681 666 -5.416666666469356E-1
681 676 2.5555555554839198
681 677 -5.0231874215711514E-11
681 681 2.3437959956786322E1
681 682 -1.843614718610141
681 683 -1.9886363634887233E-1
681 684 -1.6382575757356483
681 686 8.333333333888256E-1
681 892 2.4999999998909855E-1
681 912 8.437499999507615E-1
681 913 1.0898351665566963E-11
681 914 -1.5624999999630318
681 915 -3.3333333335932147E-1
681 916 -1.4583333333048434
681 926 -4.3750000001863926E-1
681 927 1.3020833334784634E-1
681 928 4.01826766305291E-11
681 950 -2.439360119038486
681 951 -3.124999999826799E-1
681 952 4.9479166666478525E-1
681 953 6.136363633666313E-2
681 954 1.1382575756767588
681 956 9.166666666824742E-1
682 524 -4.278019993424572
682 525 -4.484834179148389E-1
682 526 1.0361107454428176
682 528 -1.2493967157696109
682 529 -3.792203181843363E-1
682 530 -3.0059523804807414E-1
682 531 -4.375000000047053E-1
682 532 -2.0833333333820186E-1
682 579 -4.208062770530395
682 580 4.7727272727248127E-1
682 581 -2.130681818179265
682 584 -2.406250000089461
682 585 6.562500000073372E-1
682 586 6.250000000150705E-1
682 654 -1.1172614479396064E1
682 655 -2.272727272724788E-1
682 656 -9.943181818164639E-1
682 664 1.7455357142941594
682 665 -4.374999999995056E-1
682 666 5.729166666600326E-1
682 667 2.572929410661588
682 668 4.0122753768672137E-1
682 669 -6.550834962254319E-1
682 681 -1.843614718610141
682 682 2.1354564062730397E1
682 683 -4.6363651012387E-2
682 684 1.4424597776796997
682 685 -1.012169616645211
682 690 1.851552750846542
682 691 1.9848341791483698E-1
682 692 2.088889254552913
682 693 -2.0660280226643652
682 694 4.4197006785574733E-1
682 695 4.013424425635431E-2
682 953 -1.9886363634887333E-1
682 954 -8.049242424023143E-1
683 524 -4.484834179148379E-1
683 525 -4.98244244454367
683 526 2.4245286903787546
683 528 -3.792203181843341E-1
683 529 -5.478205071595434E-1
683 530 -4.375000000047071E-1
683 531 -1.0577380951357924
683 532 -1.3392857142505026
683 579 4.772727272724812E-1
683 580 -3.6418290043279895
683 581 2.61769480521201
683 584 6.562500000073361E-1
683 585 -5.556250000140427
683 586 -1.9345238096038224
683 654 -2.272727272724797E-1
683 655 -1.2072125359628194E1
683 656 -4.144423758103018
683 664 -4.3749999999950584E-1
683 665 9.883928571458118E-1
683 666 7.06845238091673E-1
683 667 4.012275376867219E-1
683 668 2.051464959907267
683 669 7.862298673059831E-2
683 681 -1.9886363634887233E-1
683 682 -4.6363651012387E-2
683 683 2.3879173892425047E1
683 684 2.436276262617978
683 685 -5.425789384760692E-1
683 690 1.9848341791483692E-1
683 691 2.8892523159953636
683 692 -8.977997374877438E-1
683 693 4.41970067855746E-1
683 694 -1.7467236361711946
683 695 7.366894294480629E-1
683 953 -2.0335497836667635E-1
683 954 -1.4204545455792092E-1
684 524 1.0361107454428167
684 525 2.424528690378757
684 526 -1.0394262608565686E1
684 528 -5.26821631296399E-1
684 529 -3.427163011166056E-1
684 530 -1.0416666667082511E-1
684 531 -6.696428571166304E-1
684 532 -3.880952380366991E-1
684 579 -2.130681818179265
684 580 2.6176948052120106
684 581 -1.0656845237983154E1
684 584 3.1250000001300154E-1
684 585 -9.672619048292412E-1
684 586 -2.275000000166078
684 654 -9.943181818164624E-1
684 655 -4.144423758103022
684 656 -2.79437705602577E1
684 664 5.208333332876813E-2
684 665 -2.604166666763399E-1
684 666 4.727232142884187
684 667 -3.0709814824091036E-1
684 668 -7.164777458777534E-1
684 669 6.179900643834696
684 681 -1.6382575757356483
684 682 1.4424597776796997
684 683 2.436276262617978
684 684 3.9802387288061034E1
684 685 -5.663662844245911E-1
684 690 2.0888892545529116
684 691 -8.977997374877449E-1
684 692 4.477017175545319
684 693 7.693009109223118E-1
684 694 6.622846675426295E-1
684 695 -2.8339235113633823
684 953 -1.4204545454403833E-1
684 954 -1.2827380952793396E-1
685 511 1.0439560439535582
685 512 5.99587912098076E-1
685 513 1.8608891741225436E-1
685 514 2.2417065371160116E-1
685 515 9.450807973560411E-1
685 516 -4.260206850015125
685 524 -1.348610745444951
685 525 2.709399881085845
685 526 -7.947942061795937
685 528 5.504482435168507E-1
685 529 1.1607158011771261
685 530 2.083333333416482E-1
685 531 -1.0416666667082386
685 532 -4.93809523816938
685 678 -4.8534798534880985E-1
685 679 3.9537545787629186E-1
685 680 -8.831287456443772E-3
685 682 -1.012169616645211
685 683 -5.425789384760692E-1
685 684 -5.663662844245911E-1
685 685 2.6907774982869228E1
685 687 7.623353364460395E-1
685 688 -1.6156069861311657
685 689 5.181442623106792
685 690 -7.651296673162833E-2
685 691 -2.501184300118358
685 692 -1.618732741638245E1
685 693 1.3339770320089936E-1
685 694 -1.0912295815954909E-1
685 695 1.6334626148556524
686 578 -2.027599042193306
686 579 2.9549356434131857
686 580 -1.1577411964482953
686 581 3.856186778988347E-1
686 584 -1.5733972771200837
686 585 1.2537221763338444
686 586 4.7765660156802564E-1
686 587 1.8393778326109782
686 594 -2.7095952130603616
686 595 3.704800156767856
686 596 -1.6147621167581175E1
686 607 -2.6319653024870653
686 608 -3.173237707580136
686 609 -7.668281894447652E-1
686 622 1.6732141009747916
686 623 1.005306109558
686 624 -9.486490850449952E-2
686 625 -8.675247108695872E-2
686 626 1.6420223488191361
686 627 1.4271252705482267
686 640 -8.400031892246591E1
686 681 8.333333333888256E-1
686 686 1.1511093812702785E2
686 847 -1.8521115058073794
686 848 1.0678906661819434E-1
686 849 5.001342992327862E-1
686 865 3.1693230895305176
686 866 2.232904741072366
686 867 -9.987573303930406
686 880 2.7208982337323477
686 881 -1.9454684371937674
686 882 -5.409931453720271
686 883 -1.6846614218435383
686 884 3.2533924888123655E-1
686 885 3.9852211228164325E-1
686 892 -4.0120425995397835E-2
686 912 -9.37500000043168E-1
686 913 -2.4553571427762577
686 914 3.5238095245939566E-1
686 950 3.1249999999121186E-1
686 951 8.184523809176044E-1
686 952 -3.880952379621329E-1
686 953 -1.7857142857913617
686 954 -1.8571428574076156
686 956 -5.31697033183022E-1
687 511 2.690234924296016E-1
687 512 4.212454212404464E-2
687 513 -6.272893772868893E-1
687 514 -1.8967070774689296
687 515 2.044511422705545E-1
687 516 4.406563765585982E-1
687 528 2.1581157005750042
687 529 4.299505151293703E-1
687 628 -1.896707077468975
687 629 -2.04451142270558E-1
687 630 -4.406563765586031E-1
687 631 2.6902349242961043E-1
687 632 -4.2124542124046455E-2
687 633 6.272893772868983E-1
687 657 2.15811570057505
687 658 -4.2995051512936644E-1
687 659 -7.623353364460381E-1
687 660 -1.2985920329729986E1
687 661 6.537501178381104E-17
687 662 8.333333333333337E-1
687 678 -1.2985920329729899E1
687 679 -4.4563457523648044E-17
687 680 -8.333333333333331E-1
687 685 7.623353364460395E-1
687 687 3.41096406462904E1
687 688 9.492406860545088E-15
687 689 -1.7889872701707733E-14
687 690 -4.599332108950882
687 691 5.922771152758739E-1
687 692 -2.336385576375121
687 693 -4.599332108950996
687 694 -5.922771152758821E-1
687 695 2.3363855763751333
688 511 -1.2454212454262242E-1
688 512 -2.245059876442524E-1
688 513 1.186126373628881
688 514 3.7784475603888854E-2
688 515 -2.829334753592546
688 516 -2.529613699874059E-1
688 528 4.299505151293691E-1
688 529 2.758917792522127
688 628 -3.7784475603892004E-2
688 629 -2.8293347535925903
688 630 -2.529613699873699E-1
688 631 1.2454212454262E-1
688 632 -2.2450598764424257E-1
688 633 1.1861263736288723
688 657 -4.299505151293662E-1
688 658 2.758917792522175
688 659 -1.6156069861311786
688 660 1.142720766408549E-16
688 661 -1.2985920329729986E1
688 662 -3.110106808497953E-15
688 678 -1.0171409037460745E-16
688 679 -1.2985920329729899E1
688 680 -1.8755928260039762E-15
688 685 -1.6156069861311657
688 687 9.492406860545088E-15
688 688 3.5235538683523E1
688 689 -2.891637046561744
688 690 5.922771152758741E-1
688 691 -4.336926063316835
688 692 2.1282605057705433
688 693 -5.922771152758814E-1
688 694 -4.3369260633169455
688 695 2.1282605057705726
689 511 -2.1062271062022042E-1
689 512 1.1861263736288818
689 513 1.2719287081507451E-2
689 514 2.3989709891929445E-2
689 515 -2.529613699874048E-1
689 516 -3.2861023205424624
689 528 7.623353364460411E-1
689 529 -1.6156069861311668
689 628 -2.3989709891938216E-2
689 629 -2.5296136998736973E-1
689 630 -3.286102320542562
689 631 2.1062271062023052E-1
689 632 1.1861263736288727
689 633 1.2719287081523638E-2
689 657 -7.623353364460386E-1
689 658 -1.6156069861311795
689 659 5.1814426231069355
689 660 1.6666666666666672
689 661 -5.052255931818219E-15
689 662 -3.246480082432497E1
689 678 -1.6666666666666659
689 679 -2.8112977670569396E-15
689 680 -3.246480082432475E1
689 685 5.181442623106792
689 687 -1.7889872701707733E-14
689 688 -2.891637046561744
689 689 7.616978275998274E1
689 690 -2.3363855763751222
689 691 2.128260505770545
689 692 -7.528150145312267
689 693 2.3363855763751356
689 694 2.1282605057705735
689 695 -7.528150145312498
690 511 -1.467260501537796
690 512 -3.063170440980802E-1
690 513 5.20833333331204E-1
690 514 2.8420371879814157
690 515 -4.781920758275578E-1
690 516 -8.44183499633721E-1
690 524 -2.8548137789859176
690 525 8.548757454197353E-1
690 526 -1.3931716012330115
690 528 -6.970383708093104
690 529 -1.6429899725221176E-2
690 654 -2.0660280226643817
690 655 -4.4197006785574555E-1
690 656 -7.693009109223081E-1
690 657 1.0822812452215441E-1
690 658 2.8479257593257346E-1
690 659 -1.333977032009068E-1
690 660 -7.465953483720087E-1
690 661 3.1151773686667994E-1
690 662 1.4583333333319077
690 682 1.851552750846542
690 683 1.9848341791483692E-1
690 684 2.0888892545529116
690 685 -7.651296673162833E-2
690 687 -4.599332108950882
690 688 5.922771152758741E-1
690 689 -2.3363855763751222
690 690 2.1602921295873987E1
690 691 -9.990375039030992E-1
690 692 1.4848963368806751
690 693 -7.700325890620014
690 694 4.676396538435324E-15
690 695 1.820539383593378E-15
691 511 -3.0631704409807947E-1
691 512 -2.33379127116626
691 513 1.0109942825852112
691 514 -4.781920758275582E-1
691 515 3.6673244096269544
691 516 -2.0290825018314043
691 524 8.548757454197348E-1
691 525 -4.273162354117651
691 526 2.5356433281482937
691 528 -1.6429899725220666E-2
691 529 -8.223802471696102
691 654 -4.4197006785574583E-1
691 655 -1.7467236361712202
691 656 6.622846675426409E-1
691 657 2.847925759325744E-1
691 658 -1.7130430564171386
691 659 -1.0912295815953887E-1
691 660 3.1151773686667994E-1
691 661 -4.42179525372355E-1
691 662 -1.0416666666737784
691 682 1.9848341791483698E-1
691 683 2.8892523159953636
691 684 -8.977997374877449E-1
691 685 -2.501184300118358
691 687 5.922771152758739E-1
691 688 -4.336926063316835
691 689 2.128260505770545
691 690 -9.990375039030992E-1
691 691 2.4954148589263642E1
691 692 -4.1222629063281
691 693 4.1389590856146196E-15
691 694 -8.4410969366284
691 695 4.363936286552232
692 511 1.0416666666453703E-1
692 512 4.1575618734288927E-1
692 513 -1.050872702883796
692 514 -8.441834996337207E-1
692 515 -2.0290825018314034
692 516 4.859276539592837
692 524 -7.681716012344344E-1
692 525 1.4939766614745142
692 526 -4.207918516876477
692 528 -7.651296673163074E-2
692 529 -2.5011843001183602
692 654 -4.01342442563527E-2
692 655 7.366894294480721E-1
692 656 -2.8339235113634316
692 657 -3.4173103653281645E-1
692 658 9.325437085142426E-1
692 659 1.6334626148557008
692 660 7.29166666665952E-1
692 661 -5.208333333368886E-1
692 662 -3.3964996392693764E-1
692 682 2.088889254552913
692 683 -8.977997374877438E-1
692 684 4.477017175545319
692 685 -1.618732741638245E1
692 687 -2.336385576375121
692 688 2.1282605057705433
692 689 -7.528150145312267
692 690 1.4848963368806751
692 691 -4.1222629063281
692 692 4.1254941438752574E1
692 693 3.408271497203291E-15
692 694 4.363936286552233
692 695 -2.0076855512001075E1
693 528 1.0822812452212119E-1
693 529 -2.8479257593258206E-1
693 628 2.8420371879814597
693 629 4.7819207582755413E-1
693 630 8.441834996337184E-1
693 631 -1.4672605015377773
693 632 3.063170440980843E-1
693 633 -5.208333333312013E-1
693 654 1.8515527508465568
693 655 -1.9848341791483998E-1
693 656 -2.088889254552911
693 657 -6.970383708093129
693 658 1.6429899725223428E-2
693 659 7.651296673162786E-2
693 667 -2.8548137789858314
693 668 -8.548757454197239E-1
693 669 1.393171601232987
693 678 -7.465953483720318E-1
693 679 -3.115177368666817E-1
693 680 -1.4583333333319142
693 682 -2.0660280226643652
693 683 4.41970067855746E-1
693 684 7.693009109223118E-1
693 685 1.3339770320089936E-1
693 687 -4.599332108950996
693 688 -5.922771152758814E-1
693 689 2.3363855763751356
693 690 -7.700325890620014
693 691 4.1389590856146196E-15
693 692 3.408271497203291E-15
693 693 2.160292129587401E1
693 694 9.990375039030993E-1
693 695 -1.4848963368806576
694 528 -2.847925759325822E-1
694 529 -1.7130430564171895
694 628 4.781920758275537E-1
694 629 3.6673244096269775
694 630 -2.0290825018314145
694 631 3.063170440980856E-1
694 632 -2.3337912711662256
694 633 1.010994282585204
694 654 -1.9848341791483923E-1
694 655 2.889252315995374
694 656 -8.977997374877451E-1
694 657 1.642989972522377E-2
694 658 -8.223802471696104
694 659 -2.5011843001183487
694 667 -8.54875745419724E-1
694 668 -4.273162354117547
694 669 2.5356433281482706
694 678 -3.115177368666818E-1
694 679 -4.421795253723761E-1
694 680 -1.04166666667378
694 682 4.4197006785574733E-1
694 683 -1.7467236361711946
694 684 6.622846675426295E-1
694 685 -1.0912295815954909E-1
694 687 -5.922771152758821E-1
694 688 -4.3369260633169455
694 689 2.1282605057705735
694 690 4.676396538435324E-15
694 691 -8.4410969366284
694 692 4.363936286552233
694 693 9.990375039030993E-1
694 694 2.4954148589263628E1
694 695 -4.122262906328073
695 528 3.417310365328123E-1
695 529 9.325437085142328E-1
695 628 8.441834996337182E-1
695 629 -2.029082501831416
695 630 4.859276539592956
695 631 -1.0416666666453347E-1
695 632 4.157561873428843E-1
695 633 -1.0508727028837823
695 654 -2.0888892545529147
695 655 -8.97799737487746E-1
695 656 4.477017175545357
695 657 7.651296673163084E-2
695 658 -2.5011843001183527
695 659 -1.618732741638255E1
695 667 7.681716012344102E-1
695 668 1.4939766614744925
695 669 -4.2079185168763305
695 678 -7.291666666659571E-1
695 679 -5.2083333333689E-1
695 680 -3.3964996392697366E-1
695 682 4.013424425635431E-2
695 683 7.366894294480629E-1
695 684 -2.8339235113633823
695 685 1.6334626148556524
695 687 2.3363855763751333
695 688 2.1282605057705726
695 689 -7.528150145312498
695 690 1.820539383593378E-15
695 691 4.363936286552232
695 692 -2.0076855512001075E1
695 693 -1.4848963368806576
695 694 -4.122262906328073
695 695 4.125494143875263E1
696 6 2.754578616575126E-1
696 7 -2.817500791900063E-1
696 8 5.533532186047994E-1
696 28 -8.305630923698084E-1
696 29 -6.676200190013027E-1
696 30 -8.015953964886058E-1
696 696 9.677245584833864
696 697 -2.860800795334768E-1
696 698 3.893777645697729
696 699 5.150569889180809E-1
696 700 1.798799809885841E-1
696 701 3.730317485532263E-1
696 714 -3.7092061550704374
696 715 5.563500158320642E-1
696 716 -2.50660701090173
696 735 -3.6346940629871587
696 736 -8.351734780671818E-1
696 737 -1.2283069458164095
696 738 -2.2932971249820513
696 739 1.3343936589713192
696 740 -2.836532596490093E-1
697 6 3.0749920806812825E-2
697 7 -8.697151769109412E-1
697 8 5.136394711070776E-1
697 28 -2.9262001900353224E-1
697 29 -1.4395396911884344
697 30 -1.8491020959553164
697 696 -2.860800795334768E-1
697 697 8.72120754456486
697 698 -4.331878203120139E-1
697 699 -1.9512001900918627E-1
697 700 -6.349108895044898E-1
697 701 9.185082692011756E-2
697 714 2.4385001583524468E-1
697 715 -3.2017256560570635
697 716 1.540918413289575
697 735 -8.351734780671811E-1
697 736 -1.1123943892854775
697 737 -2.2732329918431676E-1
697 738 1.334393658971319
697 739 -1.462921741618454
697 740 3.6320450413487626E-1
698 6 3.992658667324638E-1
698 7 -7.337706729067561E-2
698 8 8.410187349846606E-1
698 28 -5.75477774349783E-2
698 29 -1.849102095955317
698 30 -3.2093106949738317
698 696 3.893777645697729
698 697 -4.331878203120139E-1
698 698 1.2445795612761607E1
698 699 5.258730284553741E-1
698 700 4.5925413460261183E-1
698 701 3.875200295806711E-1
698 714 -1.5393451061240915
698 715 1.5409184132895757
698 716 -8.328929584305664
698 735 -2.125195844772185
698 736 -5.947266068668117E-1
698 737 -1.8471935958402466
698 738 -1.096827812554312
698 739 9.502210425326304E-1
698 740 -2.889005022071981E-1
699 696 5.150569889180809E-1
699 697 -1.9512001900918627E-1
699 698 5.258730284553741E-1
699 699 1.1291595623746321E1
699 700 -1.4099979160344528E-2
699 701 4.198146240567054
699 707 -3.589308076864564
699 708 -6.82789148889617E-1
699 714 1.0951353495985898
699 715 -7.671066703588897E-1
699 716 -4.401746339862256E-1
699 717 -3.48975387653234
699 718 -2.547080330786999
699 738 -5.548891683480965
699 739 -1.373936413413745
699 740 -1.0074721791738956
699 761 5.504712301823345E-1
699 762 2.578124999965791E-1
699 763 5.264136904841931E-1
699 773 1.211493078786451
699 794 3.997075031656877E-1
699 817 -8.243055555674575E-1
699 818 4.812499999934475E-1
699 819 -5.729166666698837E-1
700 696 1.798799809885841E-1
700 697 -6.349108895044898E-1
700 698 4.5925413460261183E-1
700 699 -1.4099979160344528E-2
700 700 8.461922671551745
700 701 -5.067860531782544E-1
700 707 1.2114930787864524
700 708 3.88900394826639E-1
700 714 -3.2960667036000424E-1
700 715 -2.471173776051473E-3
700 716 -1.1251726297781657
700 717 2.590825031676399E-1
700 718 3.784961826560748E-1
700 738 -1.3739364134137457
700 739 -2.5069414421953513
700 740 -4.41046195805372E-1
700 761 2.3437499996857708E-2
700 762 -1.5265376981682977E-1
700 763 -2.473958333363201E-1
700 773 -1.1823165556229405
700 794 -1.8458232850728875
700 817 4.374999999456042E-2
700 818 -2.1368055555631944
700 819 1.0937500000127864
701 696 3.730317485532263E-1
701 697 9.185082692011756E-2
701 698 3.875200295806711E-1
701 699 4.198146240567054
701 700 -5.067860531782544E-1
701 701 1.090292514847306E1
701 707 -1.571614535672719
701 708 -1.1176127936370508
701 714 2.2946822316889082E-1
701 715 -1.1251726297781657
701 716 -4.9619123773455875E-1
701 717 -1.784431521249623
701 718 -5.706265559841809
701 738 -1.7812817030000647
701 739 -8.577128624769444E-1
701 740 -2.580321023336929
701 761 3.887648809604932E-1
701 762 1.692708333352529E-1
701 763 1.130084325442114
701 773 7.563037025091319E-1
701 794 3.784961826560738E-1
701 817 -5.2083333327257675E-2
701 818 1.093750000012788
701 819 -2.520138888945497
702 48 1.948576024907526
702 50 -1.8839170642465004
702 51 -2.016596413637181
702 52 1.5824398552745755E-1
702 53 1.323016353944619
702 74 -4.267200645259708
702 75 -6.103362685496774E-1
702 76 -2.0811937467234523E-1
702 109 2.798155064063672
702 110 1.4304744367738116
702 111 -6.229466820320428E-1
702 426 4.8512565066431246E-1
702 702 3.319408129958057E1
702 703 5.140344477179994
702 704 -6.0490959118678145
702 705 -2.952056717428719
702 706 -2.2677596002337364
702 735 -6.819236148241262
702 736 1.0047478548169748
702 737 -2.859668382865193
702 753 3.2284033941988772
702 754 -7.124850044882658E-1
702 755 8.722151126746821E-1
702 756 -3.1440913668474972
702 757 -6.109314889231572E-1
702 758 3.3613378663179745
702 759 -1.0067018115206137E1
702 760 -5.865467539915979
702 868 -3.5950398260318464
702 869 9.163310054906474E-1
702 870 -3.395040680142345
702 871 2.332681335899277
702 872 -2.4672663145097962E-1
703 48 -2.8133810357566067
703 50 -5.917346347546251E-1
703 51 -1.5934680881893204E-1
703 52 1.0500000058401115E-1
703 53 4.9482066011098563E-1
703 74 5.013464385706534E-2
703 75 -3.2692549006205296E-1
703 76 -4.59959142478784
703 109 1.430474436773813
703 110 1.6639746609115056
703 111 -1.3583435410098024
703 426 2.2664439738245445E-1
703 702 5.140344477179994
703 703 3.202961427241222E1
703 704 -1.447016302394605
703 705 -1.2340921114145313
703 706 -3.9572493180082953
703 735 -1.8437666212843218
703 736 2.210449287065651E-1
703 737 -3.251668595242895
703 753 8.72215112674679E-1
703 754 3.17978359599572
703 755 2.763069086055959E-1
703 756 3.3613378663179763
703 757 9.41569247778438E-1
703 758 -3.6745625738356065
703 759 -5.865467539915979
703 760 -1.614674734127057E1
703 868 -5.938716657042309E-1
703 869 -1.3315301335893448E-1
703 870 -5.126497727497663E-1
703 871 1.1880235678291515
703 872 -2.6717209867505787
704 53 -2.95205671742872
704 702 -6.0490959118678145
704 703 -1.447016302394605
704 704 2.629222030144711E1
704 705 1.8766489256900518
704 706 5.016840848038527E-1
704 707 -6.662975864555665E-1
704 708 1.11983337375261E-2
704 735 -4.234536526882643E-2
704 736 1.3611308123162418
704 737 -1.7219243442052534E-1
704 738 -1.0017798733735752E1
704 739 -5.03604525265755E-1
704 740 1.3385444715771024
704 741 -1.1433879906303708
704 742 7.067382350298483E-1
704 743 -2.110840113814781E-2
704 753 -6.777439786991739
704 754 -7.710929172002257E-1
704 755 -1.1654903712082663
704 756 1.1620338497939022
704 757 7.526108406461308E-1
704 758 1.1375551097329772
704 773 -1.7939902460304669
704 870 -2.757888776290942
704 871 1.3236155922428945
704 872 -1.831744906899142E-1
705 53 -5.127199153231904
705 702 -2.952056717428719
705 703 -1.2340921114145313
705 704 1.8766489256900518
705 705 2.4020524405554838E1
705 706 -2.9667073515007575E-1
705 707 -1.7939902460304669
705 708 6.381421986085589E-1
705 735 1.3611308123162418
705 736 -2.7598963038363875
705 737 7.636979551565252E-1
705 738 -5.036045252657548E-1
705 739 -4.436577308351746
705 740 -4.0912594681612235E-2
705 741 7.067382350298472E-1
705 742 -5.328488011210499
705 743 -2.4665555969231379E-1
705 753 -7.710929172002247E-1
705 754 -5.9101182610975
705 755 2.6525984737311683
705 756 7.526108406461302E-1
705 757 3.155008728294037E-1
705 758 -2.58901919947615
705 773 -6.688159286955301E-1
705 870 1.3236155922428945
705 871 -1.0493031196067426E-1
705 872 3.529115729184302E-1
706 53 -2.057833707183921
706 702 -2.2677596002337364
706 703 -3.9572493180082953
706 704 5.016840848038527E-1
706 705 -2.9667073515007575E-1
706 706 2.351823028708642E1
706 707 5.324898504546758E-1
706 708 1.1533608436327161E-1
706 735 1.889821788110958E-1
706 736 -1.1889873717570332E-1
706 737 1.409731582901862E-1
706 738 2.3302904530596997
706 739 -2.1126246640779234E-1
706 740 -4.776774256983997
706 741 -1.9211108478161487E-1
706 742 7.474359078032564E-1
706 743 -1.083400344819665
706 753 -1.165490371208265
706 754 2.6525984737311665
706 755 -1.155933949176685E1
706 756 1.137555109732976
706 757 -2.589019199476149
706 758 -2.350121766583767
706 773 1.1600333749027574
706 870 -1.0656406206386855
706 871 7.13617088956461E-1
706 872 -4.765435157730519E-2
707 699 -3.589308076864564
707 700 1.2114930787864524
707 701 -1.571614535672719
707 704 -6.662975864555665E-1
707 705 -1.7939902460304669
707 706 5.324898504546758E-1
707 707 2.4309334785837844E1
707 708 -1.3899117519381243
707 717 -2.02807157370365
707 718 3.077634795040577
707 738 -2.605832135897776
707 739 1.362069071540195
707 740 7.509668034866358E-2
707 741 -7.647483289804181
707 742 2.0295451032114986
707 743 1.0545303850068783
707 753 -3.568505887989546E-1
707 754 -9.96220304361958E-1
707 755 -2.271319991041091
707 761 -8.105445023901018E-1
707 762 -9.385463169627541E-1
707 763 -9.102127179173634E-1
707 773 -2.219974837384405
707 774 -1.1839297231404142
707 775 1.2117171336202275
707 776 7.564905349435423E-1
707 780 -1.218888801137737
707 781 1.1662733730858492
707 782 -8.529042313980761E-1
707 794 1.539899569486709
707 808 -5.393060869760387E-1
707 809 -1.0957031250033713
707 810 -2.580915178544292E-1
707 817 -3.6628224206688635
707 818 -1.4765624999879758
707 819 1.7578125000274663
708 699 -6.82789148889617E-1
708 700 3.88900394826639E-1
708 701 -1.1176127936370508
708 704 1.11983337375261E-2
708 705 6.381421986085589E-1
708 706 1.1533608436327161E-1
708 707 -1.3899117519381243
708 708 2.2124919153031968E1
708 717 3.0776347950405762
708 718 -5.144731862608706
708 738 3.131919184429402E-1
708 739 -1.6270341944785967
708 740 -2.7482810689056496
708 741 2.2119705166373038E-1
708 742 -2.0450184137523708E-1
708 743 -2.677664048158401
708 753 -2.271319991041092
708 754 -1.8537442242595046
708 755 -3.114705735921623
708 761 -3.149746226684923E-1
708 762 -3.14974622658421E-1
708 763 3.890614560868826E-1
708 773 4.886981749323098E-1
708 774 3.889566648775925E-1
708 775 -6.83220141543601E-1
708 776 -1.118735143565768
708 780 -8.529042313980761E-1
708 781 3.4119754768939434
708 782 -4.402460084092513
708 794 -1.743962203097511
708 808 -2.580915178544297E-1
708 809 1.3044084821591782
708 810 -4.4885115499445816E-1
708 817 1.7578125000274656
708 818 1.9531249999224126E-1
708 819 -1.8562748015979562
709 17 4.7092411485677055E-1
709 18 -5.922905967559403E-1
709 19 1.473505614183647E-1
709 38 -2.066642230839622
709 39 -1.6058230933543538E-1
709 709 2.173217139714542E1
709 710 -6.299267152625068E-1
709 711 -3.5830175705736282
709 712 -4.3099128944063636E-1
709 713 -1.3768331129449207
709 714 -1.169564295478446E1
709 715 5.248329298303552E-2
709 716 4.579302251893421
709 717 -1.1486207205960564
709 718 1.3768331129815272
709 726 -2.5121650923321357
709 727 -6.281682867646131E-2
709 728 -8.711674886299805E-1
709 744 -2.7246775414478447E-1
709 756 -4.349033224009278
709 757 -7.351599032960729E-17
709 758 1.0952575104973553E-15
709 793 5.898069441266063E-1
709 794 8.033262129207019E-1
710 17 -3.214572633979228E-1
710 18 -3.915401674782108E-1
710 19 1.2083566953077958
710 38 2.144176906679957E-1
710 39 -3.609071347995252
710 709 -6.299267152625068E-1
710 710 2.112488634907391E1
710 711 9.373980513575633E-1
710 712 2.356402774596178E-1
710 713 1.861285313223515
710 714 3.1649959646593104E-2
710 715 -1.0587217623313341E1
710 716 -3.102142189294746E-1
710 717 5.949928795866264E-1
710 718 -1.8612853132877973
710 726 -1.2531682870040334E-1
710 727 -2.0809595658663693
710 728 3.9884685305721324E-1
710 744 -2.2343873807288146
710 756 -7.839135858824701E-17
710 757 -1.7396132896037113
710 758 -1.3179833555850028E-15
710 793 -1.5274122237698942
710 794 -1.189072131047131
711 17 -1.3431610521865986E-1
711 18 1.208356695307795
711 19 1.644076111773111
711 38 2.4836557922155694E-1
711 39 -2.2343873807288137
711 709 -3.5830175705736282
711 710 9.373980513575633E-1
711 711 4.014835467236951E1
711 712 -8.559997796274852E-1
711 713 -5.595438607106329E-1
711 714 3.5376355852096455
711 715 -3.102142189294744E-1
711 716 -2.630887423655834E1
711 717 8.55999779638909E-1
711 718 -6.679122433262527E-1
711 726 -6.866748865033878E-2
711 727 3.9884685305721285E-1
711 728 -7.896713089945358
711 744 -4.619774063998324
711 756 3.810953015549042E-16
711 757 -9.851440458211154E-16
711 758 -1.7396132896037104
711 793 1.8612853132235152
711 794 -1.861285313287798
712 709 -4.3099128944063636E-1
712 710 2.356402774596178E-1
712 711 -8.559997796274852E-1
712 712 5.186568991694336E1
712 713 1.3992558924236462
712 717 -2.2829359888019493E1
712 718 2.223593915740775
712 724 -2.4261911419978713E1
712 725 -3.622830430339522
712 726 9.04013197160269E-1
712 727 -3.3961373419369173E-1
712 728 8.559997796276925E-1
712 753 -2.6620602587289683
712 754 -5.380060537893577E-1
712 755 -1.5521944912766907E-5
712 756 -1.0824591043900547
712 757 -8.085722008278277E-1
712 758 -3.5842485963059874E-11
712 764 -7.946428571418069E-1
712 765 -4.1666666666879226E-1
712 766 -5.208333333426189E-1
712 767 -1.1755952379818961
712 768 -4.1666666666299707E-1
712 769 5.208333333138038E-1
712 777 7.676885032558634E-1
712 778 7.278191660704265E-1
712 779 7.769834804964353E-2
712 780 -7.244488708639998E-1
712 781 1.2067010897176796E-1
712 782 1.90619722735185
712 790 1.148870409315382
712 791 7.278402293194445E-1
712 792 -7.748115667421573E-2
712 793 2.2830759162537784E-1
712 794 -1.7007738305827097E-1
712 798 5.286253445100312E-1
712 805 -7.247931001292949E-1
712 806 1.206999872442715E-1
712 807 -1.9064182745428122
713 709 -1.3768331129449207
713 710 1.861285313223515
713 711 -5.595438607106329E-1
713 712 1.3992558924236462
713 713 1.1684568787568135E2
713 717 1.1819272490555124
713 718 -5.623630558655504E1
713 724 -2.5811637636794638
713 725 -5.6969814657386756E1
713 726 1.3768331129829372
713 727 -1.8612853132942524
713 728 3.318247133983832E-1
713 753 -1.5521944913410567E-5
713 754 -2.069593430797405E-5
713 755 -1.450349938577854
713 756 -3.5841402293276076E-11
713 757 -1.40163350213898E-11
713 758 -6.202258278921124E-1
713 764 -1.0416666666852439
713 765 -1.56250000000842
713 766 -6.071428571383903E-1
713 767 1.0416666666438215
713 768 1.5624999999727291
713 769 -9.88095237849886E-1
713 777 7.769834804964379E-2
713 778 -5.466171190384558E-1
713 779 3.100665289427213
713 780 1.9061972273518508
713 781 -2.422902376885891
713 782 -3.16421765866172
713 790 -7.748115667421572E-2
713 791 5.469067076457674E-1
713 792 3.482117733711049
713 793 -2.130899297142503
713 794 2.8322247915435588
713 798 -7.012996572695734E-1
713 805 -1.9064182745428115
713 806 2.422607647201849
713 807 -3.1645999874455955
714 17 3.267157489957924E-1
714 18 3.8665954624999604E-1
714 19 -7.065002203854603E-1
714 28 -2.5834374788297345
714 29 -3.149792903025991E-1
714 30 5.527898739361887E-1
714 696 -3.7092061550704374
714 697 2.4385001583524468E-1
714 698 -1.5393451061240915
714 699 1.0951353495985898
714 700 -3.2960667036000424E-1
714 701 2.2946822316889082E-1
714 709 -1.169564295478446E1
714 710 3.1649959646593104E-2
714 711 3.5376355852096455
714 714 2.795805927514132E1
714 715 -2.60515935730647
714 716 -2.198744212078385
714 717 -2.654826222181552
714 718 -1.1184891349243904
714 735 1.423098710436725
714 736 -1.700421648055725
714 737 1.7126887751217805
714 738 -5.468210547563889
714 739 2.3203661773471564
714 740 2.8221826690291674
714 756 -4.691685725742352
714 757 2.3478198644737233E-1
714 758 -3.291686452953345
714 794 1.7328592804984357
715 17 5.741595462502014E-1
715 18 -5.989375432112263E-1
715 19 -1.861285313288032
715 28 1.0168737635984346E-1
715 29 -5.819992001601602
715 30 4.410962286334179E-1
715 696 5.563500158320642E-1
715 697 -3.2017256560570635
715 698 1.5409184132895757
715 699 -7.671066703588897E-1
715 700 -2.471173776051473E-3
715 701 -1.1251726297781657
715 709 5.248329298303552E-2
715 710 -1.0587217623313341E1
715 711 -3.102142189294744E-1
715 714 -2.60515935730647
715 715 2.936514862027805E1
715 716 4.0010119508787806E-1
715 717 1.2328592805014122
715 718 1.7459074473145184
715 735 -1.7004216480557255
715 736 2.3838306573646326
715 737 1.6242331316002645
715 738 2.3203661773471573
715 739 -4.096962470633692
715 740 -2.2529880404243383
715 756 2.3478198644737142E-1
715 757 -2.4626772855078713
715 758 -2.0259621350564394E-1
715 794 -4.978995523541835
716 17 -1.8566688704421502E-1
716 18 -1.861285313288032
716 19 -7.777765549231476E-2
716 28 1.8076606440752785E-1
716 29 4.4109622863341946E-1
716 30 -2.231269646485246
716 696 -2.50660701090173
716 697 1.540918413289575
716 698 -8.328929584305664
716 699 -4.401746339862256E-1
716 700 -1.1251726297781657
716 701 -4.9619123773455875E-1
716 709 4.579302251893421
716 710 -3.102142189294746E-1
716 711 -2.630887423655834E1
716 714 -2.198744212078385
716 715 4.0010119508787806E-1
716 716 4.351334922739653E1
716 717 -6.72060563487997E-1
716 718 -1.9826536821973575
716 735 1.7126887751217805
716 736 1.624233131600266
716 737 2.4180998856867912
716 738 2.822182669029169
716 739 -2.2529880404243405
716 740 -3.885325642018853
716 756 -3.2916864529533454
716 757 -2.0259621350564366E-1
716 758 -2.62042742829099
716 794 1.7459074473145182
717 699 -3.48975387653234
717 700 2.590825031676399E-1
717 701 -1.784431521249623
717 707 -2.02807157370365
717 708 3.0776347950405762
717 709 -1.1486207205960564
717 710 5.949928795866264E-1
717 711 8.55999779638909E-1
717 712 -2.2829359888019493E1
717 713 1.1819272490555124
717 714 -2.654826222181552
717 715 1.2328592805014122
717 716 -6.72060563487997E-1
717 717 3.978645239309101E1
717 718 -1.3025587551419
717 738 -1.396537226688379E-1
717 739 -1.9262725334050719
717 740 2.1928708610928886
717 753 -3.139570824410228
717 754 8.173556670004868E-2
717 755 -1.3823825872002677
717 756 1.3693869161970114
717 757 -1.5343240578051276
717 758 -9.457560914197396E-1
717 764 1.1579241074323367E-1
717 765 -2.493489583313588E-1
717 766 3.4644717262589503E-1
717 773 1.5398995694867081
717 780 -9.620053558368814E-1
717 781 1.8115422314110399
717 782 -4.624934524814097E-1
717 793 -1.7007738306124645E-1
717 794 -3.6845448285518495E-1
717 817 -4.879769536082215
717 818 -1.2716346153954852
717 819 -1.1051968864728448
718 699 -2.547080330786999
718 700 3.784961826560748E-1
718 701 -5.706265559841809
718 707 3.077634795040577
718 708 -5.144731862608706
718 709 1.3768331129815272
718 710 -1.8612853132877973
718 711 -6.679122433262527E-1
718 712 2.223593915740775
718 713 -5.623630558655504E1
718 714 -1.1184891349243904
718 715 1.7459074473145184
718 716 -1.9826536821973575
718 717 -1.3025587551419
718 718 7.676724094000605E1
718 738 2.1928708610928878
718 739 2.8310331496432566
718 740 -3.1759303444919746
718 753 -1.382382587200266
718 754 2.0791453123689022E-1
718 755 8.22942971891446E-1
718 756 -9.457560914197397E-1
718 757 -1.6296350885774205
718 758 1.7312328261972922
718 764 5.882626488206537E-1
718 765 8.300781250063822E-1
718 766 8.88113839334188E-1
718 773 -1.7439622030975108
718 780 -4.624934524814092E-1
718 781 9.754175689470628E-1
718 782 2.3422138792153147E-1
718 793 2.832224791543558
718 794 -1.4532084221262547
718 817 -1.700434981721717
718 818 -3.1129807692587588
718 819 -7.529952686329349
719 31 6.0791083461538775E-2
719 57 2.7545786168089215E-1
719 58 -2.8175007919394296E-1
719 59 -5.533532185719884E-1
719 60 -2.8341556276374544
719 719 1.3772594227334679E1
719 720 5.487250059410553E-2
719 721 -2.032467994498323E-1
719 722 5.150569889433864E-1
719 723 -3.7303174856530913E-1
719 726 -4.78490912220335
719 727 -7.773207360730636E-1
719 728 -6.686210293344217E-1
719 729 5.833044895413104E-1
719 747 -4.019259362096708
719 748 -1.8290549043990563
719 749 -8.236632181240371E-1
719 750 -4.733921126067688
719 751 2.113727665205566
719 752 -1.7367051642181425E-1
719 756 1.8091361600462448
719 757 4.78854489414818E-1
719 758 2.2122820409260924
719 797 1.7987998099003405E-1
720 31 -5.220887493741309
720 57 3.0749920807242592E-2
720 58 -8.697151769035629E-1
720 59 -5.136394709994123E-1
720 60 4.3579108346233175E-1
720 719 5.487250059410553E-2
720 720 1.727570915280757E1
720 721 7.882439402104471E-2
720 722 -1.9512001901075895E-1
720 723 -9.185082687347304E-2
720 726 -1.0898207360742516
720 727 -6.009897551127534
720 728 -2.5146660956501914
720 729 2.7901170883063857
720 747 -1.8290549043990554
720 748 -2.3495748061878325
720 749 -5.641987059623034E-1
720 750 2.113727665205566
720 751 -6.117772068510664
720 752 6.904919887833435E-1
720 756 4.78854489414819E-1
720 757 3.9270488331517885
720 758 1.2492162837460632E-1
720 797 -6.349108894884534E-1
721 31 2.7901170883063866
721 57 -3.992658667360439E-1
721 58 7.337706739834005E-2
721 59 8.410187350452389E-1
721 60 -1.6074312953750586E-1
721 719 -2.032467994498323E-1
721 720 7.882439402104471E-2
721 721 1.557985422001966E1
721 722 -5.258730284422669E-1
721 723 3.875200296366793E-1
721 726 -1.6358829340756684
721 727 -2.5146660956501905
721 728 -8.209580174844342
721 729 -5.420832445464638
721 747 7.322568083173697E-2
721 748 -1.967953982798096E-1
721 749 -1.412770942644793
721 750 6.395040364834884E-1
721 751 1.0347545038558859E-1
721 752 -2.901015568861465
721 756 2.212282040926092
721 757 1.2492162837460762E-1
721 758 1.1358061471136618
721 797 -4.5925413455596703E-1
722 719 5.150569889433864E-1
722 720 -1.9512001901075895E-1
722 721 -5.258730284422669E-1
722 722 1.1291595623661394E1
722 723 -4.198146240545665
722 724 -3.4897538764818776
722 725 2.547080330742057
722 726 1.0951353495351988
722 727 -7.671066703615418E-1
722 728 4.4017463400832924E-1
722 750 -5.548891683454181
722 751 -1.373936413418495
722 752 1.0074721792134815
722 770 5.504712301808218E-1
722 771 2.5781249999699585E-1
722 772 -5.264136904876607E-1
722 797 -1.4099979159799776E-2
722 798 3.997075031737152E-1
722 802 -3.5893080768342442
722 803 1.21149307879064
722 804 6.827891488547091E-1
722 814 -8.243055555504977E-1
722 815 4.8124999998924456E-1
722 816 5.72916666657016E-1
723 719 -3.7303174856530913E-1
723 720 -9.185082687347304E-2
723 721 3.875200296366793E-1
723 722 -4.198146240545665
723 723 1.0902925148373987E1
723 724 1.7844315212267188
723 725 -5.706265559704964
723 726 -2.2946822315939158E-1
723 727 1.1251726297820546
723 728 -4.9619123790420705E-1
723 750 1.7812817030396502
723 751 8.577128624810747E-1
723 752 -2.5803210233777523
723 770 -3.8876488096080897E-1
723 771 -1.6927083332863502E-1
723 772 1.1300843254379362
723 797 5.067860531160971E-1
723 798 -3.78496182680358E-1
723 802 1.5716145356378102
723 803 -7.563037025127742E-1
723 804 -1.117612793579478
723 814 5.208333332699594E-2
723 815 -1.0937499999839866
723 816 -2.5201388888822027
724 712 -2.4261911419978713E1
724 713 -2.5811637636794638
724 722 -3.4897538764818776
724 723 1.7844315212267188
724 724 4.123981371963894E1
724 725 2.6965735923771437
724 726 -4.2976620200996205
724 727 2.0173129301426873
724 728 -1.8359994187713877E-1
724 750 -1.5713224458182123E-1
724 751 -1.8426055375523815
724 752 -2.1804732603146637
724 753 -3.045936821937458
724 754 4.158826583206844E-2
724 755 1.3826047380087712
724 756 1.7671989966648647
724 757 -1.5249214255550458
724 758 9.38211217272727E-1
724 767 1.1579241061498795E-1
724 768 -2.4934895833423112E-1
724 769 -3.4644717260879354E-1
724 793 4.036253445108238E-1
724 797 2.5908250317302206E-1
724 798 -1.1846106718619207
724 802 -2.0285754235848708
724 803 1.539960390601955
724 804 -3.0778636629740865
724 805 -9.620637841431956E-1
724 806 1.811551774438126
724 807 4.625298460871587E-1
724 814 -4.87976953611124
724 815 -1.2716346153951035
724 816 1.1051968864816268
725 712 -3.622830430339522
725 713 -5.6969814657386756E1
725 722 2.547080330742057
725 723 -5.706265559704964
725 724 2.6965735923771437
725 725 7.751910744215809E1
725 726 -2.5800470378337786E-1
725 727 1.154158941755011E-1
725 728 -2.8245367536220547
725 750 -2.180473260314665
725 751 -2.7696186511299494
725 752 -3.2475086007017873
725 753 1.38260473800877
725 754 -2.0834934358661006E-1
725 755 8.763414464283501E-1
725 756 9.382112172727282E-1
725 757 1.5939710292396243
725 758 1.9050828438247116
725 767 -5.882626488067024E-1
725 768 -8.300781250040974E-1
725 769 8.881138390384666E-1
725 793 -7.012996572695731E-1
725 797 -3.78496182680358E-1
725 798 -7.029641605808277E-1
725 802 -3.0778636629740865
725 803 1.7438196029113264
725 804 -5.144631369852133
725 805 4.6252984608715714E-1
725 806 -9.753811753767865E-1
725 807 2.3406405621975557E-1
725 814 1.7004349817304978
725 815 3.1129807693017497
725 816 -7.529952686401687
726 31 -9.412743703302471E-1
726 38 -2.209267518459018
726 39 1.870485327253344E-1
726 60 6.838604706948161E-1
726 709 -2.5121650923321357
726 710 -1.2531682870040334E-1
726 711 -6.866748865033878E-2
726 712 9.04013197160269E-1
726 713 1.3768331129829372
726 719 -4.78490912220335
726 720 -1.0898207360742516
726 721 -1.6358829340756684
726 722 1.0951353495351988
726 723 -2.2946822315939158E-1
726 724 -4.2976620200996205
726 725 -2.5800470378337786E-1
726 726 2.064767980877074E1
726 727 -7.917210554673261E-1
726 728 1.4564614922450496
726 729 4.5317361754178404E-1
726 744 -1.2218236593440135E-1
726 750 -2.887231048493631
726 751 1.4724318936227374
726 752 -2.384029239410026
726 756 -6.639454024573265
726 757 -8.719399613677596E-1
726 758 1.411766732243433
726 793 -1.1044706752444741E-1
726 797 -3.296066703611442E-1
726 798 2.6006462634775085
727 31 -1.4566513704345796
727 38 5.412151993937896E-1
727 39 -3.58677675771596
727 60 -4.20441037019368E-1
727 709 -6.281682867646131E-2
727 710 -2.0809595658663693
727 711 3.9884685305721285E-1
727 712 -3.3961373419369173E-1
727 713 -1.8612853132942524
727 719 -7.773207360730636E-1
727 720 -6.009897551127534
727 721 -2.5146660956501905
727 722 -7.671066703615418E-1
727 723 1.1251726297820546
727 724 2.0173129301426873
727 725 1.154158941755011E-1
727 726 -7.917210554673261E-1
727 727 2.23101037609721E1
727 728 7.675586896065243E-1
727 729 -7.020834514988076E-1
727 744 2.158662684694796
727 750 1.4724318936227359
727 751 4.6658903133239044E-1
727 752 1.256373031757233
727 756 -8.71939961367759E-1
727 757 -3.6159852563486394
727 758 -7.439949226300715E-1
727 793 2.5737330118225205E-1
727 797 -2.4711738432334623E-3
727 798 -6.281324418150427
728 31 -7.020834514988095E-1
728 38 -6.430156992392535E-1
728 39 2.158662684694797
728 60 5.860307603663176E-1
728 709 -8.711674886299805E-1
728 710 3.9884685305721324E-1
728 711 -7.896713089945358
728 712 8.559997796276925E-1
728 713 3.318247133983832E-1
728 719 -6.686210293344217E-1
728 720 -2.5146660956501914
728 721 -8.209580174844342
728 722 4.4017463400832924E-1
728 723 -4.9619123790420705E-1
728 724 -1.8359994187713877E-1
728 725 -2.8245367536220547
728 726 1.4564614922450496
728 727 7.675586896065243E-1
728 728 2.559416085512679E1
728 729 2.2145185784616452
728 744 -4.842198773238557
728 750 -2.3840292394100255
728 751 1.2563730317572348
728 752 -1.3035109472334363
728 756 1.4117667322434309
728 757 -7.439949226300723E-1
728 758 -2.5677731701988638
728 793 -1.861285313294252
728 797 1.125172629782055
728 798 1.1541589417550084E-1
729 17 -4.3732403251284524E-1
729 18 -4.693573952243524E-2
729 19 -2.5773789305218537
729 31 -1.6089882472010366
729 38 -2.1636779009590494
729 39 -1.6132521562253486
729 46 2.1862319583520176
729 47 -4.140497116607685
729 48 1.7704153552133015
729 57 2.5741741409824876
729 58 -1.4276069941970941
729 59 -1.271221004885134E1
729 60 4.855153323504279E-1
729 61 4.13809514978242E-2
729 62 7.193532078845171E-1
729 63 -7.501903949328289E-1
729 84 -9.908175263459031E-1
729 94 -1.5653886918374003
729 95 -2.158568016271883
729 96 3.7227373849654315
729 109 2.7491379969362932
729 110 -5.8600568735501115
729 719 5.833044895413104E-1
729 720 2.7901170883063857
729 721 -5.420832445464638
729 726 4.5317361754178404E-1
729 727 -7.020834514988076E-1
729 728 2.2145185784616452
729 729 4.223533651848007E1
729 744 -1.627099784899812E1
729 747 -3.528536228701692
729 748 1.378502647831496
729 749 -4.278458706963727
729 756 1.799057851506762
729 757 -1.2871856526711112
729 758 3.8380298839831557
730 48 2.0038217991896534
730 70 -2.002367602770824
730 71 -2.09760150085886
730 72 -1.5728108539351965E-1
730 73 1.2580410211830668
730 91 -4.346097968948153
730 92 -6.251297671840603E-1
730 93 2.2634522925092518E-1
730 109 2.854626790458858
730 110 -1.444224445485934
730 111 -5.56955808939303E-1
730 730 3.306971425535957E1
730 731 -4.769835892451575
730 732 -5.873106066734541
730 733 -2.897709598655926
730 734 2.265113964146976
730 745 -3.8276558281814532
730 746 -4.914746147974325E-1
730 747 -6.62753781661837
730 748 1.020424658270369
730 749 2.861210614383866
730 753 3.2945048273568216
730 754 -8.249820058237249E-1
730 755 -8.987017638032919E-1
730 756 -3.541544961802869
730 757 -6.257922631331471E-1
730 758 -3.469605738350226
730 759 -9.547824185483714
730 760 5.613568349441928
730 876 9.611328652764539E-1
730 877 -3.4527114426353247
730 878 2.3847506006754786
730 879 2.6488538305828596E-1
731 48 2.809977218103058
731 70 5.912003261586295E-1
731 71 1.572810853811089E-1
731 72 -1.113504341623972E-2
731 73 -4.1060565143527583E-1
731 91 -3.190878927848484E-2
731 92 3.314648464624719E-1
731 93 -4.679498646748647
731 109 -1.4442244454859348
731 110 1.7621459309701302
731 111 1.2953930857145706
731 730 -4.769835892451575
731 731 3.180269163864112E1
731 732 1.4437178543876517
731 733 1.2322369889527398
731 734 -3.882929562203184
731 745 5.881755134913015E-1
731 746 8.369397267477635E-2
731 747 1.8453088528029933
731 748 -2.145904315254838E-1
731 749 -3.1905737721967347
731 753 -8.987017638032893E-1
731 754 -3.1801038137652395
731 755 3.637732051939341E-1
731 756 -3.469605738350226
731 757 -9.751802538856665E-1
731 758 -3.863005486333804
731 759 5.613568349441929
731 760 -1.5657699733038383E1
731 876 1.3132066520929975E-1
731 877 5.323057330870075E-1
731 878 -1.1771937392115839
731 879 -2.7274625035429727
732 73 -2.8977095986559256
732 730 -5.873106066734541
732 731 1.4437178543876517
732 732 2.573947259761927E1
732 733 1.782666410417528
732 734 -4.397426725314123E-1
732 747 7.48435533077213E-3
732 748 1.296122341882779
732 749 1.7219243442052556E-1
732 750 -9.743429539810318
732 751 -4.3894214685507005E-1
732 752 -1.339031836335151
732 753 -6.503415975254288
732 754 -7.707845277983076E-1
732 755 1.1273940754144482
732 756 9.46926161517166E-1
732 757 7.90185831216623E-1
732 758 -1.1557715450447783
732 802 -6.665973189731129E-1
732 803 -1.7942021321835186
732 804 -1.1453216683669887E-2
732 820 -1.135410976768592
732 821 7.039169761841836E-1
732 822 2.1652445960634592E-2
732 877 -2.7719232369263587
732 878 1.3287468457917095
732 879 1.8104246041175093E-1
733 73 -5.027868013869964
733 730 -2.897709598655926
733 731 1.2322369889527398
733 732 1.782666410417528
733 733 2.3555524536385853E1
733 734 1.7321347565061923E-1
733 747 1.2961223418827783
733 748 -2.580274627722483
733 749 -7.636979551565248E-1
733 750 -4.3894214685507116E-1
733 751 -4.2680244120356186
733 752 3.6820515543301915E-2
733 753 -7.707845277983092E-1
733 754 -5.6005438412210955
733 755 -2.5692501656951237
733 756 7.901858312166244E-1
733 757 2.1327966453202035E-2
733 758 2.633920381850846
733 802 -1.7942021321835182
733 803 -6.66597318945483E-1
733 804 -6.382409601146525E-1
733 820 7.039169761841821E-1
733 821 -5.314516134010784
733 822 2.458518517648023E-1
733 877 1.3287468457917118
733 878 -1.1902815503363165E-1
733 879 -3.508541327960077E-1
734 73 2.0536330987017366
734 730 2.265113964146976
734 731 -3.882929562203184
734 732 -4.397426725314123E-1
734 733 1.7321347565061923E-1
734 734 2.330685813773069E1
734 747 -1.8898217881109544E-1
734 748 1.188987371757031E-1
734 749 2.5375838866346045E-1
734 750 -2.330777817817748
734 751 2.0717038726948325E-1
734 752 -4.644453395614409
734 753 1.1273940754144478
734 754 -2.56925016569512
734 755 -1.1419579757337644E1
734 756 -1.1557715450447785
734 757 2.633920381850845
734 758 -2.5934455284615696
734 802 -5.328752957848574E-1
734 803 -1.1596630392092613
734 804 1.1536647642130993E-1
734 820 1.9200231768390877E-1
734 821 -7.458941297103773E-1
734 822 -1.078968217972612
734 877 1.0636391527445592
734 878 -7.12028746033628E-1
734 879 -5.660654122603684E-2
735 6 -5.787196506522939E-1
735 7 9.056393914604033E-1
735 8 -1.1443222292091868
735 28 -5.923358783132891
735 29 1.8581889040434558
735 30 3.7023247013477407
735 35 -9.454108338302536E-1
735 36 7.975898818227498E-1
735 37 8.14215703827562E-2
735 48 -9.30319840607915E-1
735 53 1.0047478548169753
735 74 -1.6480814823246583
735 75 -1.9094610097120301
735 76 5.745644744483311E-1
735 109 -2.3149797830965912
735 110 -1.9042627856069148
735 696 -3.6346940629871587
735 697 -8.351734780671811E-1
735 698 -2.125195844772185
735 702 -6.819236148241262
735 703 -1.8437666212843218
735 704 -4.234536526882643E-2
735 705 1.3611308123162418
735 706 1.889821788110958E-1
735 714 1.423098710436725
735 715 -1.7004216480557255
735 716 1.7126887751217805
735 735 2.6057747095804764E1
735 736 -7.3738031775128E-1
735 737 1.864682563032366
735 738 -2.255714969108362
735 739 -8.179815318480201E-1
735 740 4.484076840940049E-2
735 756 -3.3183047275991915
735 757 1.0034409815823264
735 758 -1.1519575506808635
736 6 9.056393914604031E-1
736 7 3.272052892763232E-1
736 8 1.1289060597238398
736 28 1.8581889040434563
736 29 -3.5061292397610155
736 30 -2.0178194265267115
736 35 7.975898818227496E-1
736 36 -5.34220928456544
736 37 1.1501515003642948E-1
736 48 -2.911532670136701
736 53 -1.728834017444268
736 74 -1.9094610097120304
736 75 -1.0165132626323412
736 76 -9.371492408239124E-2
736 109 -9.303198406079152E-1
736 110 -3.796076555160584
736 696 -8.351734780671818E-1
736 697 -1.1123943892854775
736 698 -5.947266068668117E-1
736 702 1.0047478548169748
736 703 2.210449287065651E-1
736 704 1.3611308123162418
736 705 -2.7598963038363875
736 706 -1.1889873717570332E-1
736 714 -1.700421648055725
736 715 2.3838306573646326
736 716 1.624233131600266
736 735 -7.3738031775128E-1
736 736 2.6442619083159425E1
736 737 5.165562074221828E-1
736 738 -8.179815318480191E-1
736 739 -6.173262843170111
736 740 -7.258897055417243E-1
736 756 1.0034409815823262
736 757 -4.60288301896864
736 758 3.741370477864642
737 6 -2.4871847479679232E-1
737 7 5.850557762292455E-1
737 8 1.4643435588915432
737 28 3.7023247013477407
737 29 -2.017819426526711
737 30 -5.7443824660891405
737 35 1.4494237956789613E-1
737 36 -9.857385333403094E-1
737 37 -1.0986524099243884
737 48 -3.7960765551605835
737 53 4.8846527874015744E-1
737 74 -2.615154704470813E-1
737 75 -7.9986464060252E-1
737 76 6.913420462486979E-1
737 109 -1.904262785606916
737 110 -7.488542148143763
737 696 -1.2283069458164095
737 697 -2.2732329918431676E-1
737 698 -1.8471935958402466
737 702 -2.859668382865193
737 703 -3.251668595242895
737 704 -1.7219243442052534E-1
737 705 7.636979551565252E-1
737 706 1.409731582901862E-1
737 714 1.7126887751217805
737 715 1.6242331316002645
737 716 2.4180998856867912
737 735 1.864682563032366
737 736 5.165562074221828E-1
737 737 2.7297879952303635E1
737 738 4.01983625563996E-1
737 739 1.0744362780142147E-1
737 740 -1.9222764612318437
737 756 -1.1519575506808635
737 757 3.7413704778646437
737 758 -1.0659922924948576E1
738 696 -2.2932971249820513
738 697 1.334393658971319
738 698 -1.096827812554312
738 699 -5.548891683480965
738 700 -1.3739364134137457
738 701 -1.7812817030000647
738 704 -1.0017798733735752E1
738 705 -5.036045252657548E-1
738 706 2.3302904530596997
738 707 -2.605832135897776
738 708 3.131919184429402E-1
738 714 -5.468210547563889
738 715 2.3203661773471573
738 716 2.822182669029169
738 717 -1.396537226688379E-1
738 718 2.1928708610928878
738 735 -2.255714969108362
738 736 -8.179815318480191E-1
738 737 4.01983625563996E-1
738 738 2.856174968491709E1
738 739 -3.8861435176753756E-1
738 740 -1.750854350575745
738 753 1.4024865600359258
738 754 1.6445885015411548
738 755 -2.304765451400225
738 756 -1.6348373275153782
738 757 -1.6510080536996972
738 758 -1.1267902096583473
738 773 1.3620690715401949
738 794 -1.9262725334050712
739 696 1.3343936589713192
739 697 -1.462921741618454
739 698 9.502210425326304E-1
739 699 -1.373936413413745
739 700 -2.5069414421953513
739 701 -8.577128624769444E-1
739 704 -5.03604525265755E-1
739 705 -4.436577308351746
739 706 -2.1126246640779234E-1
739 707 1.362069071540195
739 708 -1.6270341944785967
739 714 2.3203661773471564
739 715 -4.096962470633692
739 716 -2.2529880404243405
739 717 -1.9262725334050719
739 718 2.8310331496432566
739 735 -8.179815318480201E-1
739 736 -6.173262843170111
739 737 1.0744362780142147E-1
739 738 -3.8861435176753756E-1
739 739 2.8713955810902295E1
739 740 1.6733211507995325
739 753 1.6445885015411559
739 754 2.0567484068866912
739 755 1.9102668581772804
739 756 -1.6510080536996976
739 757 -2.4666471551973284
739 758 -2.523288265166447
739 773 -8.576324770556456
739 794 -1.0510664860658514
740 696 -2.836532596490093E-1
740 697 3.6320450413487626E-1
740 698 -2.889005022071981E-1
740 699 -1.0074721791738956
740 700 -4.41046195805372E-1
740 701 -2.580321023336929
740 704 1.3385444715771024
740 705 -4.0912594681612235E-2
740 706 -4.776774256983997
740 707 7.509668034866358E-2
740 708 -2.7482810689056496
740 714 2.8221826690291674
740 715 -2.2529880404243383
740 716 -3.885325642018853
740 717 2.1928708610928886
740 718 -3.1759303444919746
740 735 4.484076840940049E-2
740 736 -7.258897055417243E-1
740 737 -1.9222764612318437
740 738 -1.750854350575745
740 739 1.6733211507995325
740 740 2.4086687359407687E1
740 753 -2.3047654514002263
740 754 1.910266858177281
740 755 1.1196764688535186
740 756 -1.126790209658347
740 757 -2.523288265166447
740 758 -5.8285545290847605
740 773 -7.937008611354498E-1
740 794 2.831033149643255
741 704 -1.1433879906303708
741 705 7.067382350298472E-1
741 706 -1.9211108478161487E-1
741 707 -7.647483289804181
741 708 2.2119705166373038E-1
741 741 2.3822903473592667E1
741 742 -1.6544656995851237
741 743 1.1524572468395695
741 753 -1.7896014514821996
741 754 -5.5892384486531485E-2
741 755 1.9970801589664267E-1
741 773 2.0295451032114973
741 774 -2.50422205906516
741 775 -1.3737023445588128
741 776 -8.576199780089897E-1
741 780 6.749084027737636E-1
741 781 -1.6137283169380756
741 782 2.0299266930482815
741 826 -1.4671884006057643
741 827 1.3364829077980822
741 828 9.514517025667366E-1
741 844 -4.070475671388692
741 845 1.9696188753955264
741 846 -2.6788766011872305
741 870 -5.875453013390064
741 871 -1.3445963758664095
741 872 -8.261330460371255E-1
742 704 7.067382350298483E-1
742 705 -5.328488011210499
742 706 7.474359078032564E-1
742 707 2.0295451032114986
742 708 -2.0450184137523708E-1
742 741 -1.6544656995851237
742 742 2.337326201842625E1
742 743 9.64775209196105E-1
742 753 -5.58923844865333E-2
742 754 -2.5082427730101093
742 755 -3.065448066099082
742 773 -3.0285942133252854
742 774 -1.373702344558814
742 775 -5.544020584651173
742 776 -1.7812418952844848
742 780 -1.6137283169380747
742 781 2.131139393680014
742 782 1.5971746894203558
742 826 1.3364829077980822
742 827 -2.3040500009280307
742 828 -1.1006897176784147
742 844 1.9696188753955277
742 845 -4.651626519547658
742 846 2.904672651174794
742 870 -1.344596375866411
742 871 -2.1393793094335067
742 872 -6.2176937157292556E-2
743 704 -2.110840113814781E-2
743 705 -2.4665555969231379E-1
743 706 -1.083400344819665
743 707 1.0545303850068783
743 708 -2.677664048158401
743 741 1.1524572468395695
743 742 9.64775209196105E-1
743 743 2.028039523307642E1
743 753 1.9970801589664292E-1
743 754 -3.0654480660990817
743 755 -6.476533061121602
743 773 -4.425970794845174E-1
743 774 -4.409533113374191E-1
743 775 -1.0074323714883238
743 776 -2.5781320041582365
743 780 2.029926693048282
743 781 1.5971746894203578
743 782 -2.055053878885965E-2
743 826 3.637823522516982E-1
743 827 -2.851696787451404E-1
743 828 -2.922308429183335E-1
743 844 -2.678876601187231
743 845 2.9046726511747942
743 846 -5.068966901901135
743 870 -1.6594663793802733
743 871 -4.1931979428188015E-1
743 872 -2.082917491210185
744 17 2.4222075060200116E-1
744 18 1.3253496757270562
744 19 -1.5028474246081323E1
744 31 -1.6132521562253466
744 38 1.81557654971759
744 39 3.679383269173393E-1
744 48 7.293756335528948E-2
744 60 -1.6428445675927064
744 109 3.4348676432424163E-1
744 110 7.078693908771602
744 709 -2.7246775414478447E-1
744 710 -2.2343873807288146
744 711 -4.619774063998324
744 726 -1.2218236593440135E-1
744 727 2.158662684694796
744 728 -4.842198773238557
744 729 -1.627099784899812E1
744 744 4.240408061336195E1
744 756 -3.6378937697194086E-1
744 757 -7.724871374031889E-2
744 758 -8.721329589817218
745 70 -3.831490913888502E-2
745 71 1.1787641523737311
745 72 -1.5317860087589452E-1
745 73 9.611328652764517E-1
745 85 -3.670681938518986
745 86 -2.693593203566906
745 87 4.6148521459205144E-1
745 111 9.19645374275657E-1
745 610 -4.085612898080456
745 611 4.592681164638822E-1
745 612 -9.191436199096601E-1
745 625 -3.734619760652212
745 626 -9.911485216707888E-2
745 627 3.9573219083617603
745 730 -3.8276558281814532
745 731 5.881755134913015E-1
745 745 2.5983868027172473E1
745 746 3.876425676652321E-1
745 759 -5.197661895607954
745 760 -3.288267253772769
745 876 8.637742994625819E-2
745 877 -4.9931681421819905
745 878 -2.4500565396352343
745 879 -4.956884965465001E-1
745 880 -2.94307715304822
745 881 2.476664893706424
745 882 6.962489655874035E-2
745 883 2.506924498237686
745 884 -8.39088236673186E-1
745 885 -6.079721295642622E-1
746 70 -4.568974405111902E-1
746 71 3.8438898205549654E-1
746 72 1.1789967078546765E-1
746 73 3.8957468374613147E-1
746 85 1.0975114407084945
746 86 1.607739801279152
746 87 -2.768311111100317
746 111 3.0044946220652546
746 610 9.072493624977895E-2
746 611 6.547115870749107E-2
746 612 -3.04719380651548E-1
746 625 3.9573219083617595
746 626 8.589934834341548E-2
746 627 -4.966975739626006
746 730 -4.914746147974325E-1
746 731 8.369397267477635E-2
746 745 3.876425676652321E-1
746 746 2.2993343949265245E1
746 759 -3.2882672537727684
746 760 -8.761530543792423
746 876 -8.82853376789795E-1
746 877 -1.2018382130706442
746 878 -7.773420683504666E-1
746 879 -2.1391828951579717
746 880 5.132487987310321E-1
746 881 -7.257513412556706E-1
746 882 -1.8268588833935258
746 883 -6.079721295642617E-1
746 884 -3.1516218098010103
746 885 -2.427359039003696
747 31 1.2712418045222713
747 48 -8.711590164753054E-1
747 57 -5.787196505495737E-1
747 58 9.056393914730579E-1
747 59 1.1443222291037198
747 60 -4.477081783755627
747 73 1.0204246582703693
747 91 -1.6480814823246557
747 92 -1.909461009712029
747 93 -5.745644744483307E-1
747 94 -9.454108340210445E-1
747 95 7.97589881912918E-1
747 96 -8.142157038545472E-2
747 109 -2.218310686589966
747 110 1.8989802548860584
747 719 -4.019259362096708
747 720 -1.8290549043990554
747 721 7.322568083173697E-2
747 729 -3.528536228701692
747 730 -6.62753781661837
747 731 1.8453088528029933
747 732 7.48435533077213E-3
747 733 1.2961223418827783
747 734 -1.8898217881109544E-1
747 747 2.459002593437872E1
747 748 3.9111839671191023E-1
747 749 -8.032918911457138E-1
747 750 -6.42847581535029E-1
747 751 -1.2673664231737785
747 752 2.2387031869220753E-1
747 756 -3.440261092218521
747 757 1.9490487898686232E-1
747 758 -8.91099282442867E-3
748 31 -9.225479564709359E-1
748 48 -2.6640040013430593
748 57 9.056393914730586E-1
748 58 3.272052893917021E-1
748 59 -1.1289060597305585
748 60 1.2712418045222715
748 73 -1.694726459283396
748 91 -1.9094610097120295
748 92 -1.0165132626323388
748 93 9.371492408239157E-2
748 94 7.975898819129175E-1
748 95 -5.3422092847006155
748 96 -1.1501514993074169E-1
748 109 -8.711590164753042E-1
748 110 3.7273080083097847
748 719 -1.8290549043990563
748 720 -2.3495748061878325
748 721 -1.967953982798096E-1
748 729 1.378502647831496
748 730 1.020424658270369
748 731 -2.145904315254838E-1
748 732 1.296122341882779
748 733 -2.580274627722483
748 734 1.188987371757031E-1
748 747 3.9111839671191023E-1
748 748 2.424542459875416E1
748 749 8.354248783908653E-1
748 750 -1.2673664231737778
748 751 -3.0674202774141666
748 752 7.924280694313157E-2
748 756 1.9490487898686137E-1
748 757 -4.935359212391033
748 758 -4.577784963266778
749 31 1.378502647831495
749 48 3.727308008309787
749 57 2.4871847469132607E-1
749 58 -5.850557762359636E-1
749 59 1.4643435591890166
749 60 -3.528536228701694
749 73 -4.8201078155907634E-1
749 91 2.6151547044708134E-1
749 92 7.998646406025198E-1
749 93 6.913420462486987E-1
749 94 -1.4494237957059497E-1
749 95 9.857385334459972E-1
749 96 -1.098652410175405
749 109 1.8989802548860593
749 110 -7.449606020253121
749 719 -8.236632181240371E-1
749 720 -5.641987059623034E-1
749 721 -1.412770942644793
749 729 -4.278458706963727
749 730 2.861210614383866
749 731 -3.1905737721967347
749 732 1.7219243442052556E-1
749 733 -7.636979551565248E-1
749 734 2.5375838866346045E-1
749 747 -8.032918911457138E-1
749 748 8.354248783908653E-1
749 749 2.5649088438683577E1
749 750 -1.332725384623875E-1
749 751 -7.540905264000153E-1
749 752 -1.8244062832236246E-1
749 756 -8.910992824430232E-3
749 757 -4.5777849632667795
749 758 -1.044602995222861E1
750 719 -4.733921126067688
750 720 2.113727665205566
750 721 6.395040364834884E-1
750 722 -5.548891683454181
750 723 1.7812817030396502
750 724 -1.5713224458182123E-1
750 725 -2.180473260314665
750 726 -2.887231048493631
750 727 1.4724318936227359
750 728 -2.3840292394100255
750 732 -9.743429539810318
750 733 -4.3894214685507116E-1
750 734 -2.330777817817748
750 747 -6.42847581535029E-1
750 748 -1.2673664231737778
750 749 -1.332725384623875E-1
750 750 2.8322539590528976E1
750 751 -4.3315450684423873E-1
750 752 1.7315224139798753
750 753 1.440663560016654
750 754 1.5393359503257544
750 755 2.304766667127903
750 756 -3.4436056685280914
750 757 -1.1317727981357248
750 758 8.846114847284512E-1
750 797 -1.3739364134184953
750 798 -1.8426055375523815
750 802 -2.606144258074867
750 803 1.3622823168256313
750 804 -3.131334493545418E-1
751 719 2.113727665205566
751 720 -6.117772068510664
751 721 1.0347545038558859E-1
751 722 -1.373936413418495
751 723 8.577128624810747E-1
751 724 -1.8426055375523815
751 725 -2.7696186511299494
751 726 1.4724318936227374
751 727 4.6658903133239044E-1
751 728 1.2563730317572348
751 732 -4.3894214685507005E-1
751 733 -4.2680244120356186
751 734 2.0717038726948325E-1
751 747 -1.2673664231737785
751 748 -3.0674202774141666
751 749 -7.540905264000153E-1
751 750 -4.3315450684423873E-1
751 751 2.865456690413848E1
751 752 -1.8774307253399463
751 753 1.5393359503257562
751 754 2.14167045214054
751 755 -1.9063527324396148
751 756 -1.1317727981357273
751 757 -5.720656671968959
751 758 3.2557206084081107
751 797 -2.506941442199999
751 798 -1.0048036302550685
751 802 1.3622823168256302
751 803 -8.577207885226935
751 804 1.6270402950080334
752 719 -1.7367051642181425E-1
752 720 6.904919887833435E-1
752 721 -2.901015568861465
752 722 1.0074721792134815
752 723 -2.5803210233777523
752 724 -2.1804732603146637
752 725 -3.2475086007017873
752 726 -2.384029239410026
752 727 1.256373031757233
752 728 -1.3035109472334363
752 732 -1.339031836335151
752 733 3.6820515543301915E-2
752 734 -4.644453395614409
752 747 2.2387031869220753E-1
752 748 7.924280694313157E-2
752 749 -1.8244062832236246E-1
752 750 1.7315224139798753
752 751 -1.8774307253399463
752 752 2.425648135871374E1
752 753 2.3047666671279043
752 754 -1.906352732439614
752 755 1.152766991358501
752 756 8.846114847284516E-1
752 757 3.255720608408109
752 758 -7.801354507293826
752 797 4.410461958095023E-1
752 798 -2.769618651129949
752 802 -7.503821126026428E-2
752 803 7.937069616648869E-1
752 804 -2.7486436786671997
753 53 -7.124850044882653E-1
753 73 -8.249820058237236E-1
753 111 -3.8035639569765127
753 702 3.2284033941988772
753 703 8.72215112674679E-1
753 704 -6.777439786991739
753 705 -7.710929172002247E-1
753 706 -1.165490371208265
753 707 -3.568505887989546E-1
753 708 -2.271319991041092
753 712 -2.6620602587289683
753 713 -1.5521944913410567E-5
753 717 -3.139570824410228
753 718 -1.382382587200266
753 724 -3.045936821937458
753 725 1.38260473800877
753 730 3.2945048273568216
753 731 -8.987017638032893E-1
753 732 -6.503415975254288
753 733 -7.707845277983092E-1
753 734 1.1273940754144478
753 738 1.4024865600359258
753 739 1.6445885015411559
753 740 -2.3047654514002263
753 741 -1.7896014514821996
753 742 -5.58923844865333E-2
753 743 1.9970801589664292E-1
753 750 1.440663560016654
753 751 1.5393359503257562
753 752 2.3047666671279043
753 753 6.191251421278649E1
753 754 -5.28342289775038
753 755 5.05405496715752E-2
753 756 -1.4475645015771951E1
753 757 6.657425897041676
753 758 1.3398342646046557E-2
753 759 -4.579847130730497
753 760 2.0512617593006217E-2
753 773 -9.962203043619574E-1
753 777 -2.293253454430068
753 778 -5.829956722231515E-1
753 779 -6.223771338201863E-2
753 780 3.0628529807564375E-1
753 781 -1.513686086820742
753 782 -1.0652485920837185
753 790 -1.9882878975851126
753 791 -5.830125442479548E-1
753 792 6.206373935409559E-2
753 793 -5.380060537893578E-1
753 794 8.173556670004845E-2
753 798 4.15882658320696E-2
753 802 -3.562569677325061E-1
753 803 -9.958061100023781E-1
753 804 2.2711770156658524
753 805 3.077967431231738E-1
753 806 -1.5138192447978396
753 807 1.0651771518406397
753 820 -1.782689982068215
753 821 -5.5517110035481015E-2
753 822 -1.9772481242263504E-1
753 832 -2.263770105823199
753 833 2.121266561283866
753 834 1.0507892779531018
753 844 5.769923822532963E-2
753 845 6.002057419438207E-1
753 846 5.674296595953364E-1
753 850 -2.5694746201689047
753 851 2.120068017482587
753 852 -1.051968660976962
753 859 6.264049561711371E-2
753 860 5.999841127947967E-1
753 861 -5.646915411019651E-1
753 870 -5.163642778278064
753 871 9.416843368594738E-1
753 872 4.900811435326625
753 877 -5.3082912441558525
753 878 9.279570734412476E-1
753 879 -4.912546103852466
753 883 -6.9569594250878275
753 884 1.7254467955563109
753 885 -1.1495288350905077E-2
754 53 -3.15154908005704E-1
754 73 -1.6147843354240493E-1
754 111 -5.407084823597167
754 702 -7.124850044882658E-1
754 703 3.17978359599572
754 704 -7.710929172002257E-1
754 705 -5.9101182610975
754 706 2.6525984737311665
754 707 -9.96220304361958E-1
754 708 -1.8537442242595046
754 712 -5.380060537893577E-1
754 713 -2.069593430797405E-5
754 717 8.173556670004868E-2
754 718 2.0791453123689022E-1
754 724 4.158826583206844E-2
754 725 -2.0834934358661006E-1
754 730 -8.249820058237249E-1
754 731 -3.1801038137652395
754 732 -7.707845277983076E-1
754 733 -5.6005438412210955
754 734 -2.56925016569512
754 738 1.6445885015411548
754 739 2.0567484068866912
754 740 1.910266858177281
754 741 -5.5892384486531485E-2
754 742 -2.5082427730101093
754 743 -3.0654480660990817
754 750 1.5393359503257544
754 751 2.14167045214054
754 752 -1.906352732439614
754 753 -5.28342289775038
754 754 7.010266687272633E1
754 755 -3.167693334793675E-2
754 756 6.657425897041678
754 757 -2.4814297664342806E1
754 758 -3.0887541077622593E-2
754 759 -3.8035639569765127
754 760 -6.922868686150781E-3
754 773 1.4146456814864916E-1
754 777 -5.829956722231521E-1
754 778 -4.236655128871773
754 779 4.3784971544933626E-1
754 780 -1.5136860868207431
754 781 -1.9308050317877745
754 782 -2.3105283120042293
754 790 -5.830125442479557E-1
754 791 -3.4740677010124807
754 792 -4.3808168090538824E-1
754 793 -9.79939980801136E-1
754 794 1.139467268133459
754 798 1.231748582140913
754 802 -9.958061100023783E-1
754 803 1.4207800337056847E-1
754 804 1.8526224188209546
754 805 -1.5138192447978394
754 806 -1.928267766919819
754 807 2.309929875615701
754 820 -5.5517110035480544E-2
754 821 -2.5032181647618095
754 822 3.059801187267552
754 832 2.1212665612838664
754 833 -3.4075159160792348
754 834 -9.286097417671381E-1
754 844 6.002057419438209E-1
754 845 -2.7889208122885636
754 846 -2.208545263775577
754 850 2.1200680174825894
754 851 -4.167880542602311
754 852 9.332207394799243E-1
754 859 5.999841127947955E-1
754 860 -2.7814556723197517
754 861 2.2051868285389498
754 870 9.41684336859475E-1
754 871 -2.2276042802559335
754 872 -1.4224601028830575
754 877 9.279570734412493E-1
754 878 -2.3046508918860065
754 879 1.3766674379649295
754 883 1.7254467955563086
754 884 4.920584408562214E-1
754 885 3.5139823948172035E-2
755 53 3.1797835959957186
755 73 -3.180103813765238
755 111 -6.9228686861498995E-3
755 702 8.722151126746821E-1
755 703 2.763069086055959E-1
755 704 -1.1654903712082663
755 705 2.6525984737311683
755 706 -1.155933949176685E1
755 707 -2.271319991041091
755 708 -3.114705735921623
755 712 -1.5521944912766907E-5
755 713 -1.450349938577854
755 717 -1.3823825872002677
755 718 8.22942971891446E-1
755 724 1.3826047380087712
755 725 8.763414464283501E-1
755 730 -8.987017638032919E-1
755 731 3.637732051939341E-1
755 732 1.1273940754144482
755 733 -2.5692501656951237
755 734 -1.1419579757337644E1
755 738 -2.304765451400225
755 739 1.9102668581772804
755 740 1.1196764688535186
755 741 1.9970801589664267E-1
755 742 -3.065448066099082
755 743 -6.476533061121602
755 750 2.304766667127903
755 751 -1.9063527324396148
755 752 1.152766991358501
755 753 5.05405496715752E-2
755 754 -3.167693334793675E-2
755 755 6.649625512576762E1
755 756 1.3398342646046502E-2
755 757 -3.0887541077621372E-2
755 758 -9.480320382595751
755 759 2.0512617593006155E-2
755 760 -1.3058437758102412
755 773 -1.8537442242595041
755 777 -6.223771338201761E-2
755 778 4.3784971544933426E-1
755 779 -4.1620079928388
755 780 -1.0652485920837185
755 781 -2.3105283120042293
755 782 3.037341885140127
755 790 6.20637393540958E-2
755 791 -4.3808168090538874E-1
755 792 -3.857259141765401
755 793 -2.0695934308301835E-5
755 794 2.0791453123689024E-1
755 798 -2.0834934358660973E-1
755 802 2.2711770156658524
755 803 1.852622418820955
755 804 -3.1122267363441507
755 805 1.0651771518406394
755 806 2.309929875615703
755 807 3.0396137628001174
755 820 -1.977248124226346E-1
755 821 3.059801187267553
755 822 -6.461094384349039
755 832 1.0507892779531047
755 833 -9.286097417671397E-1
755 834 -3.3647572140675747E-1
755 844 5.674296595953344E-1
755 845 -2.2085452637755747
755 846 -7.955307173380416E-1
755 850 -1.0519686609769634
755 851 9.332207394799261E-1
755 852 -6.43461809264009E-1
755 859 -5.646915411019652E-1
755 860 2.205186828538949
755 861 -7.910032203209064E-1
755 870 4.900811435326624
755 871 -1.4224601028830577
755 872 -6.920130737245256
755 877 -4.912546103852464
755 878 1.3766674379649277
755 879 -7.002185776114352
755 883 -1.149528835090587E-2
755 884 3.513982394817232E-2
755 885 1.7030296140790733
756 17 -3.229172143319463E-1
756 18 1.0108356301234163
756 19 1.7296605832460016E-1
756 28 1.10777353878208
756 29 1.1567346571791783
756 30 -1.780157964380952
756 31 1.9925176443068988
756 38 -6.296917604873001
756 39 1.362274081861229
756 48 -2.090524062908551
756 53 -6.109314889231556E-1
756 60 6.10280001290596E-1
756 73 -6.257922631331453E-1
756 109 -7.717578768916834
756 110 -1.2833186246262585E-1
756 111 -1.1854425740727572
756 702 -3.1440913668474972
756 703 3.3613378663179763
756 704 1.1620338497939022
756 705 7.526108406461302E-1
756 706 1.137555109732976
756 709 -4.349033224009278
756 710 -7.839135858824701E-17
756 711 3.810953015549042E-16
756 712 -1.0824591043900547
756 713 -3.5841402293276076E-11
756 714 -4.691685725742352
756 715 2.3478198644737142E-1
756 716 -3.2916864529533454
756 717 1.3693869161970114
756 718 -9.457560914197397E-1
756 719 1.8091361600462448
756 720 4.78854489414819E-1
756 721 2.212282040926092
756 724 1.7671989966648647
756 725 9.382112172727282E-1
756 726 -6.639454024573265
756 727 -8.71939961367759E-1
756 728 1.4117667322434309
756 729 1.799057851506762
756 730 -3.541544961802869
756 731 -3.469605738350226
756 732 9.46926161517166E-1
756 733 7.901858312166244E-1
756 734 -1.1557715450447785
756 735 -3.3183047275991915
756 736 1.0034409815823262
756 737 -1.1519575506808635
756 738 -1.6348373275153782
756 739 -1.6510080536996976
756 740 -1.126790209658347
756 744 -3.6378937697194086E-1
756 747 -3.440261092218521
756 748 1.9490487898686137E-1
756 749 -8.910992824430232E-3
756 750 -3.4436056685280914
756 751 -1.1317727981357273
756 752 8.846114847284516E-1
756 753 -1.4475645015771951E1
756 754 6.657425897041678
756 755 1.3398342646046502E-2
756 756 5.9066530785061296E1
756 757 -3.5993380323777364
756 758 1.4217425632516387
756 759 -3.7409305822329326
756 760 6.982851783238822E-2
756 793 -8.08572200827828E-1
756 794 -1.5343240578051267
756 798 -1.5249214255550467
757 17 1.0108356301234165
757 18 6.29347890743561E-1
757 19 3.6728410356927726E-2
757 28 1.1567346571791788
757 29 1.082949823327633
757 30 1.9282350800532697
757 31 -2.6124776232437824E-1
757 38 1.36227408186123
757 39 -4.393251126123967
757 48 -2.2086514095351315E1
757 53 -8.889010425384718E-1
757 60 1.9925176443069001
757 73 -1.2729092616782094
757 109 -2.090524062908553
757 110 1.3696654952632503E-2
757 111 1.658892956855646
757 702 -6.109314889231572E-1
757 703 9.41569247778438E-1
757 704 7.526108406461308E-1
757 705 3.155008728294037E-1
757 706 -2.589019199476149
757 709 -7.351599032960729E-17
757 710 -1.7396132896037113
757 711 -9.851440458211154E-16
757 712 -8.085722008278277E-1
757 713 -1.40163350213898E-11
757 714 2.3478198644737233E-1
757 715 -2.4626772855078713
757 716 -2.0259621350564366E-1
757 717 -1.5343240578051276
757 718 -1.6296350885774205
757 719 4.78854489414818E-1
757 720 3.9270488331517885
757 721 1.2492162837460762E-1
757 724 -1.5249214255550458
757 725 1.5939710292396243
757 726 -8.719399613677596E-1
757 727 -3.6159852563486394
757 728 -7.439949226300723E-1
757 729 -1.2871856526711112
757 730 -6.257922631331471E-1
757 731 -9.751802538856665E-1
757 732 7.90185831216623E-1
757 733 2.1327966453202035E-2
757 734 2.633920381850845
757 735 1.0034409815823264
757 736 -4.60288301896864
757 737 3.7413704778646437
757 738 -1.6510080536996972
757 739 -2.4666471551973284
757 740 -2.523288265166447
757 744 -7.724871374031889E-2
757 747 1.9490487898686232E-1
757 748 -4.935359212391033
757 749 -4.5777849632667795
757 750 -1.1317727981357248
757 751 -5.720656671968959
757 752 3.255720608408109
757 753 6.657425897041676
757 754 -2.4814297664342806E1
757 755 -3.0887541077621372E-2
757 756 -3.5993380323777364
757 757 7.338413337528165E1
757 758 3.479551284593114E-1
757 759 -1.1854425740727563
757 760 1.8732166672836524E-2
757 793 -1.0883312921672699
757 794 -3.5854389976256795E-1
757 798 -3.1138368436772623E-1
758 17 1.7296605832460013E-1
758 18 3.672841035692781E-2
758 19 2.781962082232267
758 28 -1.7801579643809529
758 29 1.9282350800532697
758 30 1.811851210729579
758 31 -1.2871856526711098
758 38 -3.637893769719412E-1
758 39 -7.724871374032005E-2
758 48 1.369665495263045E-2
758 53 9.41569247778439E-1
758 60 1.7990578515067623
758 73 -9.751802538856652E-1
758 109 -1.2833186246262598E-1
758 110 -8.147763170092162
758 111 1.8732166672836104E-2
758 702 3.3613378663179745
758 703 -3.6745625738356065
758 704 1.1375551097329772
758 705 -2.58901919947615
758 706 -2.350121766583767
758 709 1.0952575104973553E-15
758 710 -1.3179833555850028E-15
758 711 -1.7396132896037104
758 712 -3.5842485963059874E-11
758 713 -6.202258278921124E-1
758 714 -3.291686452953345
758 715 -2.0259621350564394E-1
758 716 -2.62042742829099
758 717 -9.457560914197396E-1
758 718 1.7312328261972922
758 719 2.2122820409260924
758 720 1.2492162837460632E-1
758 721 1.1358061471136618
758 724 9.38211217272727E-1
758 725 1.9050828438247116
758 726 1.411766732243433
758 727 -7.439949226300715E-1
758 728 -2.5677731701988638
758 729 3.8380298839831557
758 730 -3.469605738350226
758 731 -3.863005486333804
758 732 -1.1557715450447783
758 733 2.633920381850846
758 734 -2.5934455284615696
758 735 -1.1519575506808635
758 736 3.741370477864642
758 737 -1.0659922924948576E1
758 738 -1.1267902096583473
758 739 -2.523288265166447
758 740 -5.8285545290847605
758 744 -8.721329589817218
758 747 -8.91099282442867E-3
758 748 -4.577784963266778
758 749 -1.044602995222861E1
758 750 8.846114847284512E-1
758 751 3.2557206084081107
758 752 -7.801354507293826
758 753 1.3398342646046557E-2
758 754 -3.0887541077622593E-2
758 755 -9.480320382595751
758 756 1.4217425632516387
758 757 3.479551284593114E-1
758 758 6.501717735716005E1
758 759 6.982851783238825E-2
758 760 2.8933077760206043
758 793 -1.4014278279023447E-11
758 794 -1.6296350885774216
758 798 1.5939710292396247
759 48 3.0659363771388817
759 50 -3.367235473391788
759 51 3.1311467995079584E-2
759 52 9.127394782876275E-1
759 53 -6.229466820320446E-1
759 70 -3.184319330063112
759 71 6.444363605246782E-2
759 72 -8.847838510999142E-1
759 73 -5.569558089393045E-1
759 74 2.3790878440397085
759 75 1.852208888319061
759 76 -1.4001699577275482
759 83 -1.2198646518348986
759 85 -1.0403839402012667
759 86 -1.261509642929656
759 87 -2.9087004126912386
759 91 2.5063881462179793
759 92 1.8374563078067871
759 93 1.3799039605368857
759 103 -7.5436369732594475
759 104 -2.520840312915336
759 105 -6.169552388605828E-3
759 109 -6.445865040976513
759 110 1.580507660891883E-2
759 111 -2.758377183875049
759 365 2.947863559682969
759 381 -1.291825887318508
759 382 -2.616962082048227
759 383 -2.1675147440593914E-2
759 426 3.3231901239834882
759 427 -1.259617257014896
759 625 -1.0904608184652568E1
759 626 5.059755634039541
759 627 -4.588265039968E-2
759 702 -1.0067018115206137E1
759 703 -5.865467539915979
759 730 -9.547824185483714
759 731 5.613568349441929
759 745 -5.197661895607954
759 746 -3.2882672537727684
759 753 -4.579847130730497
759 754 -3.8035639569765127
759 755 2.0512617593006155E-2
759 756 -3.7409305822329326
759 757 -1.1854425740727563
759 758 6.982851783238825E-2
759 759 6.737468529346614E1
759 760 1.6178768592272247E-1
759 868 -5.488578038843614
759 869 1.00282819122631
759 870 4.472966736216694
759 871 -9.95219200171928E-1
759 872 -4.854294276902687E-3
759 876 9.196453742756568E-1
759 877 4.6194650949732425
759 878 -1.0125987198339093
759 879 3.1134003621924866E-3
759 883 -7.73299368511082
759 884 4.760447543955835
759 885 -2.234211053889723E-2
760 48 3.391035673895853E-4
760 50 9.12739478287627E-1
760 51 3.3278470613157634
760 52 -7.786454939317255
760 53 -1.3583435410098046
760 70 -8.847838510999135E-1
760 71 -3.252745388147609
760 72 -7.442940783680934
760 73 1.2953930857145737
760 74 -1.4001699577275482
760 75 3.0944767298865745
760 76 7.326998047699605E-1
760 83 2.947863559682971
760 85 -2.908700412691241
760 86 -1.1168298636704117
760 87 -1.3476056831675083
760 91 1.3799039605368857
760 92 -3.0974615569303756
760 93 8.241140462525379E-1
760 103 -6.169552388605978E-3
760 104 -2.1243153677626338E-2
760 105 -6.296052703906359
760 109 1.580507660891837E-2
760 110 -1.4453337690530306
760 111 6.332063485104294E-3
760 365 -1.4292873503963857
760 381 -2.167514744059315E-2
760 382 -2.9606052354248763E-2
760 383 3.14533719585045
760 426 -9.089237052053706
760 427 1.1318073135331375
760 625 -4.588265039967998E-2
760 626 3.8220637045234804E-2
760 627 -3.130139999817186
760 702 -5.865467539915979
760 703 -1.614674734127057E1
760 730 5.613568349441928
760 731 -1.5657699733038383E1
760 745 -3.288267253772769
760 746 -8.761530543792423
760 753 2.0512617593006217E-2
760 754 -6.922868686150781E-3
760 755 -1.3058437758102412
760 756 6.982851783238822E-2
760 757 1.8732166672836524E-2
760 758 2.8933077760206043
760 759 1.6178768592272247E-1
760 760 7.422616959682017E1
760 868 3.3231901239834887
760 869 -3.051130160361203
760 870 -4.854294276904366E-3
760 871 -3.158092791845003
760 872 1.600100781259478
760 876 3.0044946220652573
760 877 3.1134003621935136E-3
760 878 3.15346159476462
760 879 1.6984399687329894
760 883 -2.2342110538898258E-2
760 884 2.1270998631941332E-2
760 885 -5.281295494402223
761 699 5.504712301823345E-1
761 700 2.3437499996857708E-2
761 701 3.887648809604932E-1
761 707 -8.105445023901018E-1
761 708 -3.149746226684923E-1
761 761 5.280399870826429
761 762 1.0806361607073731
761 763 1.9501355229916166
761 764 5.601781728335603E-1
761 765 3.735351562498687E-1
761 766 -1.6566685268169082E-1
761 773 -9.385463169627544E-1
761 774 -1.526537698596938E-1
761 775 2.578125000091998E-1
761 776 1.692708333387444E-1
761 808 -3.463925500809797
761 809 -1.4843749999732428E-1
761 810 -1.6685267857402122
761 817 -1.963925500782731
761 818 -6.484375000032209E-1
761 819 -3.5900297620045957E-1
762 699 2.578124999965791E-1
762 700 -1.5265376981682977E-1
762 701 1.692708333352529E-1
762 707 -9.385463169627541E-1
762 708 -3.14974622658421E-1
762 761 1.0806361607073731
762 762 5.280399870776811
762 763 1.9501355229516653
762 764 3.735351562500633E-1
762 765 5.601781728191426E-1
762 766 -1.656668526788274E-1
762 773 -8.105445023561623E-1
762 774 2.343750000928352E-2
762 775 5.504712301400546E-1
762 776 3.887648809462616E-1
762 808 -6.484374999973241E-1
762 809 -1.9639255007950411
762 810 -3.59002976171142E-1
762 817 -1.4843750000322098E-1
762 818 -3.4639255007679743
762 819 -1.6685267857247892
763 699 5.264136904841931E-1
763 700 -2.473958333363201E-1
763 701 1.130084325442114
763 707 -9.102127179173634E-1
763 708 3.890614560868826E-1
763 761 1.9501355229916166
763 762 1.9501355229516653
763 763 7.614922668079913
763 764 1.1335100446618232E-1
763 765 1.133510044636746E-1
763 766 -2.804627710589684E-1
763 773 -9.102127178922879E-1
763 774 -2.473958333328287E-1
763 775 5.264136904753322E-1
763 776 1.130084325392036
763 808 -1.6685267857402117
763 809 2.362351190627251E-1
763 810 -4.991845001957042
763 817 2.3623511904841105E-1
763 818 -1.6685267857247887
763 819 -4.9918450019849345
764 712 -7.946428571418069E-1
764 713 -1.0416666666852439
764 717 1.1579241074323367E-1
764 718 5.882626488206537E-1
764 761 5.601781728335603E-1
764 762 3.735351562500633E-1
764 763 1.1335100446618232E-1
764 764 1.756190449791502E1
764 765 2.1032519934553964
764 766 4.930011580133967E-1
764 767 -8.866897934984447
764 768 -2.926331713619011E-1
764 769 -1.4594780219928478
764 777 3.3940972211075554E-1
764 778 -2.812500000016259E-1
764 779 -1.4713541667074517
764 780 -3.767271426695138
764 781 -8.891601562428562E-1
764 782 1.1701311384170148
764 783 -1.458333333317478E-1
764 784 6.250000000014229E-1
764 785 -3.228878340093763
764 786 1.3699441100697368E-1
764 787 2.2417065372216882E-1
764 793 -6.458333333365741E-1
764 794 -5.983072916634833E-1
764 795 -1.8967070774712638
764 796 2.3989709889586985E-2
764 808 -1.141834077428129
764 809 2.597656249998219E-1
764 810 7.324218750118564E-1
764 811 2.842037187991568
764 812 4.781920758267604E-1
764 813 -8.44183499637212E-1
764 817 -1.5772569444478384
764 818 -7.109374999973336E-1
764 819 8.463541666804717E-1
764 893 1.0416666666709357E-1
764 957 -3.7784475602335194E-2
765 712 -4.1666666666879226E-1
765 713 -1.56250000000842
765 717 -2.493489583313588E-1
765 718 8.300781250063822E-1
765 761 3.735351562498687E-1
765 762 5.601781728191426E-1
765 763 1.133510044636746E-1
765 764 2.1032519934553964
765 765 1.8294815263778148E1
765 766 4.558768981231057E-1
765 767 -2.9263317136041267E-1
765 768 -9.083014175714123
765 769 -1.262706043968143
765 777 -3.437500000019643E-1
765 778 1.6326388887792904
765 779 -1.82291666664129
765 780 -1.1547851562429403
765 781 -3.0537297599840265
765 782 1.3747442335912103
765 783 2.0833333333760258E-2
765 784 -1.0416666666595438
765 785 1.3699441100697474E-1
765 786 -3.7125139584563027
765 787 -9.45080797363693E-1
765 793 -1.330357142842883
765 794 -9.310825892411926E-1
765 795 -2.0445114226900135E-1
765 796 2.529613699781326E-1
765 808 -1.777343749998414E-1
765 809 1.7066592256921737E-1
765 810 2.115885416610101E-1
765 811 4.781920758267596E-1
765 812 3.667324409633137
765 813 2.029082501813927
765 817 -2.7343749999844824E-1
765 818 -2.8897569444228095
765 819 1.3671875000036466
765 893 -4.9583333332969726E-1
765 957 -2.8293347535878977
766 712 -5.208333333426189E-1
766 713 -6.071428571383903E-1
766 717 3.4644717262589503E-1
766 718 8.88113839334188E-1
766 761 -1.6566685268169082E-1
766 762 -1.656668526788274E-1
766 763 -2.804627710589684E-1
766 764 4.930011580133967E-1
766 765 4.558768981231057E-1
766 766 2.951322824850624E1
766 767 -5.219780219835481E-1
766 768 -1.2627060439681417
766 769 -2.079211823651886E1
766 777 -1.5755208333734085
766 778 -1.8229166666349186
766 779 2.6560763886800083
766 780 1.170131138417015
766 781 1.058523995499847
766 782 -3.739874530258085
766 783 3.1250000000071204E-1
766 784 -1.8333333333180502E-1
766 785 -1.9249601294450078E-1
766 786 -3.4984270212983326E-1
766 787 -4.260206850108569
766 793 -1.5625000000084215
766 794 8.300781250063829E-1
766 795 4.4065637655625667E-1
766 796 -3.286102320556721
766 808 7.324218750118557E-1
766 809 -3.0924479167513297E-1
766 810 -1.3985305060143025
766 811 -8.441834996372122E-1
766 812 2.0290825018139307
766 813 4.859276539622362
766 817 3.255208333378471E-1
766 818 1.3671875000036462
766 819 -3.3689236111570944
766 893 -5.208333333297691E-1
766 957 2.529613699781321E-1
767 712 -1.1755952379818961
767 713 1.0416666666438215
767 724 1.1579241061498795E-1
767 725 -5.882626488067024E-1
767 764 -8.866897934984447
767 765 -2.9263317136041267E-1
767 766 -5.219780219835481E-1
767 767 1.6721463327467465E1
767 768 2.0811726537031388
767 769 1.1214114011108978
767 770 5.601781728323592E-1
767 771 3.7353515625002465E-1
767 772 -1.1335100446522797E-1
767 777 4.285714285146404E-1
767 778 -2.4999999999553427E-1
767 779 1.8750000000257612
767 785 4.068040327901349E-1
767 786 6.470287757541995E-1
767 787 1.0439560439527655
767 788 -9.770107811451029E-2
767 789 -1.3736263736481819E-1
767 790 -4.0801566328068206E-1
767 791 -3.633653846144601E-1
767 792 -8.657165750758774E-1
767 793 -6.458333333292657E-1
767 795 2.6902349243029505E-1
767 796 -2.1062271061943702E-1
767 798 -5.983072916689534E-1
767 805 -3.767271426969713
767 806 -8.891601562574797E-1
767 807 -1.1701311384147006
767 811 -1.4672605015209852
767 812 3.063170441006076E-1
767 813 1.0416666666879773E-1
767 814 -1.5772569444110809
767 815 -7.109375000014865E-1
767 816 -8.463541666653316E-1
767 823 -1.1418340773865663
767 824 2.5976562500072997E-1
767 825 -7.324218750063993E-1
767 955 -4.2124542123887596E-2
767 957 1.2454212454277994E-1
768 712 -4.1666666666299707E-1
768 713 1.5624999999727291
768 724 -2.4934895833423112E-1
768 725 -8.300781250040974E-1
768 764 -2.926331713619011E-1
768 765 -9.083014175714123
768 766 -1.2627060439681417
768 767 2.0811726537031388
768 768 1.7986730771428284E1
768 769 2.904994197533701
768 770 3.7353515625001354E-1
768 771 5.601781728270756E-1
768 772 -1.1335100446440799E-1
768 777 -2.4999999999553546E-1
768 778 1.0714285713707659
768 779 1.5625000000005418
768 785 6.470287757542015E-1
768 786 6.55399299268225E-1
768 787 -5.995879120967009E-1
768 788 -1.2545787545722106E-1
768 789 7.907509157515609E-1
768 790 -4.258653846140176E-1
768 791 7.254119020392303E-1
768 792 5.403808085818275E-1
768 793 -2.2827380951008758
768 795 -4.212454212388686E-2
768 796 -1.186126373627335
768 798 -9.310825893884966E-1
768 805 -1.1547851562573699
768 806 -3.053729760299977
768 807 -1.3747442336692572
768 811 3.0631704410060745E-1
768 812 -2.3337912711360866
768 813 -4.1575618734464254E-1
768 814 -2.7343750000108874E-1
768 815 -2.8897569444031985
768 816 -1.3671874999942393
768 823 -1.7773437499971223E-1
768 824 1.706659226141754E-1
768 825 -2.1158854167153773E-1
768 955 -3.7119581586146716E-1
768 957 -2.2450598764352817E-1
769 712 5.208333333138038E-1
769 713 -9.88095237849886E-1
769 724 -3.4644717260879354E-1
769 725 8.881138390384666E-1
769 764 -1.4594780219928478
769 765 -1.262706043968143
769 766 -2.079211823651886E1
769 767 1.1214114011108978
769 768 2.904994197533701
769 769 2.7974655523565495E1
769 770 1.6566685267949322E-1
769 771 1.6566685267834066E-1
769 772 -2.8046277105079254E-1
769 777 1.8750000000257618
769 778 1.5625000000005385
769 779 4.285714284304779E-1
769 785 1.0439560439527664
769 786 -5.995879120966947E-1
769 787 1.8608891731846325E-1
769 788 -6.868131868240754E-2
769 789 -1.3397054113601625E-1
769 790 -5.17731227091624E-1
769 791 4.149229331279576E-1
769 792 2.2626991418751503
769 793 1.5624999999727298
769 795 -6.272893772861019E-1
769 796 1.271928708195814E-2
769 798 -8.300781250040976E-1
769 805 -1.1701311384147004
769 806 -1.0585239955706596
769 807 -3.7398745309207593
769 811 5.20833333335463E-1
769 812 -1.0109942825859928
769 813 -1.0508727028538634
769 814 -3.255208333353125E-1
769 815 -1.3671874999942382
769 816 -3.368923611033075
769 823 -7.32421875006398E-1
769 824 3.092447916581111E-1
769 825 -1.3985305059467583
769 955 3.9537545787578215E-1
769 957 -1.1861263736273346
770 722 5.504712301808218E-1
770 723 -3.8876488096080897E-1
770 767 5.601781728323592E-1
770 768 3.7353515625001354E-1
770 769 1.6566685267949322E-1
770 770 5.28039987083622
770 771 1.0806361607122237
770 772 -1.9501355229915547
770 797 2.3437499996895733E-2
770 799 -1.5265376984036255E-1
770 800 2.5781250000322753E-1
770 801 -1.6927083333189702E-1
770 802 -8.105445023985169E-1
770 803 -9.385463169626767E-1
770 804 3.149746226729002E-1
770 814 -1.963925500803407
770 815 -6.484375000010598E-1
770 816 3.5900297619860666E-1
770 823 -3.4639255008071137
770 824 -1.4843749999862427E-1
770 825 1.6685267857332609
771 722 2.5781249999699585E-1
771 723 -1.6927083332863502E-1
771 767 3.7353515625002465E-1
771 768 5.601781728270756E-1
771 769 1.6566685267834066E-1
771 770 1.0806361607122237
771 771 5.280399870814273
771 772 -1.9501355229744224
771 797 -1.5265376981947892E-1
771 799 2.3437500003116785E-2
771 800 5.504712301599695E-1
771 801 -3.8876488095360096E-1
771 802 -9.385463169626772E-1
771 803 -8.10544502382519E-1
771 804 3.1497462266733267E-1
771 814 -1.4843750000106004E-1
771 815 -3.4639255007978056
771 816 1.6685267857273844
771 823 -6.48437499998624E-1
771 824 -1.9639255008015146
771 825 3.590029761836002E-1
772 722 -5.264136904876607E-1
772 723 1.1300843254379362
772 767 -1.1335100446522797E-1
772 768 -1.1335100446440799E-1
772 769 -2.8046277105079254E-1
772 770 -1.9501355229915547
772 771 -1.9501355229744224
772 772 7.614922668143535
772 797 2.4739583334293913E-1
772 799 2.4739583333967577E-1
772 800 -5.26413690482425E-1
772 801 1.130084325413782
772 802 9.10212717921772E-1
772 803 9.102127179086809E-1
772 804 3.890614560692638E-1
772 814 -2.362351190502645E-1
772 815 1.6685267857273827
772 816 -4.991845002020387
772 823 1.6685267857332606
772 824 -2.3623511905774774E-1
772 825 -4.9918450019933385
773 699 1.211493078786451
773 700 -1.1823165556229405
773 701 7.563037025091319E-1
773 704 -1.7939902460304669
773 705 -6.688159286955301E-1
773 706 1.1600333749027574
773 707 -2.219974837384405
773 708 4.886981749323098E-1
773 717 1.5398995694867081
773 718 -1.7439622030975108
773 738 1.3620690715401949
773 739 -8.576324770556456
773 740 -7.937008611354498E-1
773 741 2.0295451032114973
773 742 -3.0285942133252854
773 743 -4.425970794845174E-1
773 753 -9.962203043619574E-1
773 754 1.4146456814864916E-1
773 755 -1.8537442242595041
773 761 -9.385463169627544E-1
773 762 -8.105445023561623E-1
773 763 -9.102127178922879E-1
773 773 2.5830446388297265E1
773 774 1.2117171336202293
773 775 -3.5918660381949232
773 776 -1.5725146255202922
773 780 1.166273373085848
773 781 -3.2224985682814267
773 782 3.411975476893943
773 794 -6.888218718532038E-1
773 808 -1.0957031250033709
773 809 -2.414306086921548
773 810 1.3044084821591788
773 817 -1.4765624999879736
773 818 -1.7878224206384385
773 819 1.9531249999224043E-1
774 707 -1.1839297231404142
774 708 3.889566648775925E-1
774 741 -2.50422205906516
774 742 -1.373702344558814
774 743 -4.409533113374191E-1
774 761 -1.526537698596938E-1
774 762 2.343750000928352E-2
774 763 -2.473958333328287E-1
774 773 1.2117171336202293
774 774 8.462533041465845
774 775 -1.546932421632135E-2
774 776 -5.070412896719693E-1
774 780 -1.8475867832723762
774 781 2.589347375348228E-1
774 782 3.788389089051877E-1
774 808 -2.1368055556025882
774 809 4.37500000201243E-2
774 810 1.0937500000276636
774 826 -6.353401243119075E-1
774 827 1.807665747275624E-1
774 828 4.594173376065498E-1
774 844 -1.995026213702872E-3
774 845 -3.294342771368871E-1
774 846 -1.1255724770747766
775 707 1.2117171336202275
775 708 -6.83220141543601E-1
775 741 -1.3737023445588128
775 742 -5.544020584651173
775 743 -1.0074323714883238
775 761 2.578125000091998E-1
775 762 5.504712301400546E-1
775 763 5.264136904753322E-1
775 773 -3.5918660381949232
775 774 -1.546932421632135E-2
775 775 1.1290737885878691E1
775 776 4.198918566983949
775 780 3.9955973753423335E-1
775 781 -3.492465023118309
775 782 -2.5483117109263964
775 808 4.8125000001978707E-1
775 809 -8.243055556089558E-1
775 810 -5.729166666899288E-1
775 826 -1.9423342527176332E-1
775 827 5.147309986099614E-1
775 828 5.252866569290109E-1
775 844 -7.669342771365506E-1
775 845 1.0967170869446567
775 846 -4.387380237400415E-1
776 707 7.564905349435423E-1
776 708 -1.118735143565768
776 741 -8.576199780089897E-1
776 742 -1.7812418952844848
776 743 -2.5781320041582365
776 761 1.692708333387444E-1
776 762 3.887648809462616E-1
776 763 1.130084325392036
776 773 -1.5725146255202922
776 774 -5.070412896719693E-1
776 775 4.198918566983949
776 776 1.0905269850310244E1
776 780 3.7883890890518657E-1
776 781 -1.7856629013966174
776 782 -5.709911729177138
776 808 1.0937500000276639
776 809 -5.2083333353786565E-2
776 810 -2.5201388889547554
776 826 9.188346754059823E-2
776 827 3.7291447423341983E-1
776 828 3.8745413122586403E-1
776 844 -1.1255724770747766
776 845 2.30904833391551E-1
776 846 -4.9589054107224334E-1
777 712 7.676885032558634E-1
777 713 7.769834804964379E-2
777 753 -2.293253454430068
777 754 -5.829956722231521E-1
777 755 -6.223771338201761E-2
777 764 3.3940972211075554E-1
777 765 -3.437500000019643E-1
777 766 -1.5755208333734085
777 767 4.285714285146404E-1
777 768 -2.4999999999553546E-1
777 769 1.8750000000257618
777 777 6.3984232275771326E1
777 778 2.5750461968500127E-1
777 779 2.9511269147928285
777 780 -3.5907427771920474E1
777 781 8.837429896152811E-1
777 782 -3.911807980959038
777 785 -5.113095238138182
777 786 -8.75000000000237E-1
777 787 2.083333333397643E-1
777 790 -1.888395729383789E1
777 791 -2.6639206640544803E-2
777 792 5.060773377769081E-1
777 793 7.278191660704272E-1
777 832 -3.9059274083682183E-1
777 833 -9.721710356788625E-2
777 834 9.043278540617737E-1
777 844 -2.5454657904362095
777 845 -3.808063811091946E-1
777 846 1.706814155836872
777 850 8.668665504246498E-1
777 851 2.4984158816768506E-1
777 852 -2.5756447494992085
777 906 -1.2529761904775967
777 907 4.3750000000012107E-1
777 908 -1.0416666666988282E-1
778 712 7.278191660704265E-1
778 713 -5.466171190384558E-1
778 753 -5.829956722231515E-1
778 754 -4.236655128871773
778 755 4.3784971544933426E-1
778 764 -2.812500000016259E-1
778 765 1.6326388887792904
778 766 -1.8229166666349186
778 767 -2.4999999999553427E-1
778 768 1.0714285713707659
778 769 1.5625000000005385
778 777 2.5750461968500127E-1
778 778 7.431526465651604E1
778 779 -1.4427504868613102E1
778 780 1.0087429896159559
778 781 -3.762700040591444E1
778 782 1.0889967083671017E1
778 785 -8.750000000002377E-1
778 786 -1.2170238095317238E1
778 787 1.04166666669882
778 790 -2.6639206640545705E-2
778 791 -2.0278231079233997E1
778 792 1.9794875751887415
778 793 5.099857476748065E-2
778 832 -2.2221710356856036E-1
778 833 1.2397267959216345
778 834 -4.604418738162912E-1
778 844 -4.433063811095318E-1
778 845 -2.7264086775244682
778 846 1.0661762351614197
778 850 2.4984158816768526E-1
778 851 2.1671663757147948
778 852 -3.8980960518542207E-1
778 906 4.3750000000012057E-1
778 907 -3.4386904762081008
778 908 6.696428571183207E-1
779 712 7.769834804964353E-2
779 713 3.100665289427213
779 753 -6.223771338201863E-2
779 754 4.3784971544933626E-1
779 755 -4.1620079928388
779 764 -1.4713541667074517
779 765 -1.82291666664129
779 766 2.6560763886800083
779 767 1.8750000000257612
779 768 1.5625000000005418
779 769 4.285714284304779E-1
779 777 2.9511269147928285
779 778 -1.4427504868613102E1
779 779 1.399711291568217E2
779 780 -3.9118079809590403
779 781 9.848300416998734
779 782 -8.612751714750512E1
779 785 4.1666666667167407E-1
779 786 2.083333333358367
779 787 -4.938095238166187
779 790 5.060773377769083E-1
779 791 1.9794875751887457
779 792 -4.583268129584836E1
779 793 -5.466171190384546E-1
779 832 6.959945207298643E-1
779 833 -4.604418738035593E-1
779 834 2.481870283845358
779 844 1.7068141558368737
779 845 3.9653337802982525E-1
779 846 -7.1044012331541815
779 850 -2.5756447494992094
779 851 -3.898096051854219E-1
779 852 8.668665507714814E-1
779 906 -2.0833333333583798E-1
779 907 1.3392857142562797
779 908 -1.3404761904635927
780 707 -1.218888801137737
780 708 -8.529042313980761E-1
780 712 -7.244488708639998E-1
780 713 1.9061972273518508
780 717 -9.620053558368814E-1
780 718 -4.624934524814092E-1
780 741 6.749084027737636E-1
780 742 -1.6137283169380747
780 743 2.029926693048282
780 753 3.0628529807564375E-1
780 754 -1.5136860868207431
780 755 -1.0652485920837185
780 764 -3.767271426695138
780 765 -1.1547851562429403
780 766 1.170131138417015
780 773 1.166273373085848
780 774 -1.8475867832723762
780 775 3.9955973753423335E-1
780 776 3.7883890890518657E-1
780 777 -3.5907427771920474E1
780 778 1.0087429896159559
780 779 -3.9118079809590403
780 780 5.3647613553023405E1
780 781 -3.598836602646164E-1
780 782 4.531061255440338
780 793 1.2067010897176803E-1
780 794 1.8115422314110403
780 808 -5.5914906026642965
780 809 -1.724759615362153
780 810 -1.9187843406716865
780 817 -5.011869331297747E-1
780 818 3.0468750000649675E-1
780 819 -1.612723214311837
780 844 -4.10850070835213
780 845 1.5553668950031845
780 846 -1.921934112569033E-1
781 707 1.1662733730858492
781 708 3.4119754768939434
781 712 1.2067010897176796E-1
781 713 -2.422902376885891
781 717 1.8115422314110399
781 718 9.754175689470628E-1
781 741 -1.6137283169380756
781 742 2.131139393680014
781 743 1.5971746894203578
781 753 -1.513686086820742
781 754 -1.9308050317877745
781 755 -2.3105283120042293
781 764 -8.891601562428562E-1
781 765 -3.0537297599840265
781 766 1.058523995499847
781 773 -3.2224985682814267
781 774 2.589347375348228E-1
781 775 -3.492465023118309
781 776 -1.7856629013966174
781 777 8.837429896152811E-1
781 778 -3.762700040591444E1
781 779 9.848300416998734
781 780 -3.598836602646164E-1
781 781 5.52624079924803E1
781 782 -8.36227561262626
781 793 -1.3854207465985946E-1
781 794 -2.894109495340223
781 808 -1.224759615362152
781 809 -6.226105987208065
781 810 -2.411000457855688
781 817 3.046875000064964E-1
781 818 2.498813066855477
781 819 8.872767857191306E-1
781 844 1.0553668950031843
781 845 -1.3071041067216613
781 846 -4.8629927271039036E-1
782 707 -8.529042313980761E-1
782 708 -4.402460084092513
782 712 1.90619722735185
782 713 -3.16421765866172
782 717 -4.624934524814097E-1
782 718 2.3422138792153147E-1
782 741 2.0299266930482815
782 742 1.5971746894203558
782 743 -2.055053878885965E-2
782 753 -1.0652485920837185
782 754 -2.3105283120042293
782 755 3.037341885140127
782 764 1.1701311384170148
782 765 1.3747442335912103
782 766 -3.739874530258085
782 773 3.411975476893943
782 774 3.788389089051877E-1
782 775 -2.5483117109263964
782 776 -5.709911729177138
782 777 -3.911807980959038
782 778 1.0889967083671017E1
782 779 -8.612751714750512E1
782 780 4.531061255440338
782 781 -8.36227561262626
782 782 1.0510923034540457E2
782 793 -2.4229023768858924
782 794 9.754175689470647E-1
782 808 -1.9187843406716851
782 809 -3.0062385530895543
782 810 -7.356731314342888
782 817 -1.6127232143118373
782 818 8.872767857191312E-1
782 819 1.1259389172225278
782 844 -1.92193411256904E-1
782 845 -4.8629927271038986E-1
782 846 1.0145304671375763
783 764 -1.458333333317478E-1
783 765 2.0833333333760258E-2
783 766 3.1250000000071204E-1
783 783 1.4075960638895252E1
783 784 2.5000000000000036
783 785 -9.991054946194361E-2
783 786 -2.364796182716667E-1
783 787 -4.8534798534714774E-1
783 795 -1.2985920329610522E1
783 796 -1.6666666666666667
783 886 -9.770107811522644E-2
783 887 1.2545787545837522E-1
783 888 6.868131868048397E-2
783 893 -2.2132932738526898E-1
783 957 -1.7980470072338109E-16
783 958 -7.465953483758119E-1
783 959 3.115177368648003E-1
783 960 -7.291666666673845E-1
784 764 6.250000000014229E-1
784 765 -1.0416666666595438
784 766 -1.8333333333180502E-1
784 783 2.5000000000000036
784 784 3.313058594987864E1
784 785 -9.706959706943017E-1
784 786 -7.907509157492335E-1
784 787 -8.831287457977715E-3
784 795 -8.333333333333327E-1
784 796 -3.2464800824026305E1
784 886 1.3736263736097098E-1
784 887 7.907509157492381E-1
784 888 -1.3397054113602316E-1
784 893 -8.992806499463768E-15
784 957 -1.42223887215265E-15
784 958 -1.4583333333347623
784 959 1.0416666666595493
784 960 -3.396499639265316E-1
785 764 -3.228878340093763
785 765 1.3699441100697474E-1
785 766 -1.9249601294450078E-1
785 767 4.068040327901349E-1
785 768 6.470287757542015E-1
785 769 1.0439560439527664
785 777 -5.113095238138182
785 778 -8.750000000002377E-1
785 779 4.1666666667167407E-1
785 783 -9.991054946194361E-2
785 784 -9.706959706943017E-1
785 785 1.7047378568195477E1
785 786 5.25447570697929E-1
785 787 5.504482434876851E-1
785 790 -3.0588618746290277
785 791 -4.4848341791490737E-1
785 792 -1.348610745436093
785 795 2.1581157005613143
785 796 7.623353364416405E-1
785 811 -6.970383708007549
785 812 1.6429899725644376E-2
785 813 -7.651296673748777E-2
785 893 -2.364796182716669E-1
785 906 -1.2493967157296415
785 907 3.7922031819367097E-1
785 908 -5.268216312768438E-1
785 957 -4.2995051512987703E-1
785 958 1.0822812451318048E-1
785 959 2.847925759382679E-1
785 960 3.417310365354612E-1
786 764 1.3699441100697368E-1
786 765 -3.7125139584563027
786 766 -3.4984270212983326E-1
786 767 6.470287757541995E-1
786 768 6.55399299268225E-1
786 769 -5.995879120966947E-1
786 777 -8.75000000000237E-1
786 778 -1.2170238095317238E1
786 779 2.083333333358367
786 783 -2.364796182716667E-1
786 784 -7.907509157492335E-1
786 785 5.25447570697929E-1
786 786 2.5238539377224697E1
786 787 -1.1607158011313106
786 790 -4.4848341791490653E-1
786 791 -2.354439423478516
786 792 -2.7093998810439794
786 795 -4.299505151298776E-1
786 796 1.6156069861354454
786 811 1.6429899725645427E-2
786 812 -8.223802471605383
786 813 2.5011843000729685
786 893 6.900104335886931E-2
786 906 3.792203181936705E-1
786 907 -5.478205070886345E-1
786 908 3.427163010980988E-1
786 957 2.7589177924997865
786 958 2.8479257593826834E-1
786 959 -1.713043056405505
786 960 -9.325437085138285E-1
787 764 2.2417065372216882E-1
787 765 -9.45080797363693E-1
787 766 -4.260206850108569
787 767 1.0439560439527655
787 768 -5.995879120967009E-1
787 769 1.8608891731846325E-1
787 777 2.083333333397643E-1
787 778 1.04166666669882
787 779 -4.938095238166187
787 783 -4.8534798534714774E-1
787 784 -8.831287457977715E-3
787 785 5.504482434876851E-1
787 786 -1.1607158011313106
787 787 2.6907774982617603E1
787 790 -1.3486107454360936
787 791 -2.7093998810439834
787 792 -7.947942061599663
787 795 7.623353364416396E-1
787 796 5.181442623075871
787 811 -7.651296673748872E-2
787 812 2.5011843000729708
787 813 -1.6187327416171197E1
787 893 -3.953754578746173E-1
787 906 -1.0121696166239975
787 907 5.42578938457349E-1
787 908 -5.663662843231524E-1
787 957 1.6156069861354456
787 958 1.333977032007046E-1
787 959 1.0912295814572015E-1
787 960 1.6334626148148113
788 767 -9.770107811451029E-2
788 768 -1.2545787545722106E-1
788 769 -6.868131868240754E-2
788 788 1.4075960638935918E1
788 789 -2.500000000000003
788 795 -1.2985920329654881E1
788 796 1.666666666666667
788 811 -7.465953483703865E-1
788 812 -3.115177368637048E-1
788 813 7.291666666673831E-1
788 889 -1.458333333317313E-1
788 890 -2.0833333333760924E-2
788 891 -3.125000000007131E-1
788 941 -9.991054946440976E-2
788 942 2.364796182715292E-1
788 943 4.8534798534907403E-1
788 955 2.2132932738315766E-1
788 957 -5.500215738885126E-18
789 767 -1.3736263736481819E-1
789 768 7.907509157515609E-1
789 769 -1.3397054113601625E-1
789 788 -2.500000000000003
789 789 3.313058594998806E1
789 795 8.33333333333333E-1
789 796 -3.24648008241372E1
789 811 1.4583333333347615
789 812 1.0416666666595524
789 813 -3.396499639236166E-1
789 889 -6.250000000014241E-1
789 890 -1.041666666659537
789 891 -1.8333333333176413E-1
789 941 9.706959706981513E-1
789 942 -7.907509157515596E-1
789 943 -8.831287459462255E-3
789 955 -1.915134717478395E-14
789 957 2.9660815655736368E-15
790 712 1.148870409315382
790 713 -7.748115667421572E-2
790 753 -1.9882878975851126
790 754 -5.830125442479557E-1
790 755 6.20637393540958E-2
790 767 -4.0801566328068206E-1
790 768 -4.258653846140176E-1
790 769 -5.17731227091624E-1
790 777 -1.888395729383789E1
790 778 -2.6639206640545705E-2
790 779 5.060773377769083E-1
790 785 -3.0588618746290277
790 786 -4.4848341791490653E-1
790 787 -1.3486107454360936
790 790 6.681204442137434E1
790 791 4.8080627981720875E-1
790 792 -2.5523550713165326
790 793 7.278402293194445E-1
790 805 -3.5910683623549915E1
790 806 8.837403335592268E-1
790 807 3.9093304246042186
790 811 -2.8548137789885266
790 812 -8.548757454174513E-1
790 813 -7.681716012490237E-1
790 850 -1.5579608185630935
790 851 -2.2213789765554748E-1
790 852 1.1504835621391607
790 859 -2.5456242497621564
790 860 -3.8108360180463585E-1
790 861 -1.7068141557941439
790 906 -3.32563904113345
790 907 4.4848341791490837E-1
790 908 1.0361107454382286
790 944 2.5729294106401452
790 945 4.01227537684271E-1
790 946 3.070981482490223E-1
791 712 7.278402293194445E-1
791 713 5.469067076457674E-1
791 753 -5.830125442479548E-1
791 754 -3.4740677010124807
791 755 -4.3808168090538874E-1
791 767 -3.633653846144601E-1
791 768 7.254119020392303E-1
791 769 4.149229331279576E-1
791 777 -2.6639206640544803E-2
791 778 -2.0278231079233997E1
791 779 1.9794875751887457
791 785 -4.4848341791490737E-1
791 786 -2.354439423478516
791 787 -2.7093998810439834
791 790 4.8080627981720875E-1
791 791 6.995947972996238E1
791 792 1.4296577379926592E1
791 793 1.0037366956963938
791 805 1.008740333558345
791 806 -3.7632668727892245E1
791 807 -1.0895250639975174E1
791 811 -8.548757454174514E-1
791 812 -4.27316235408393
791 813 -1.4939766614447012
791 850 -3.4713789765466585E-1
791 851 -3.9922911315708803E-1
791 852 1.0737486430593928
791 859 -4.4358360180419343E-1
791 860 -2.726804825000611
791 861 -1.0668834310299316
791 906 4.48483417914908E-1
791 907 -2.601490063712919
791 908 -2.42452869039343
791 944 4.012275376842709E-1
791 945 2.051464959873771
791 946 7.164777458441502E-1
792 712 -7.748115667421573E-2
792 713 3.482117733711049
792 753 6.206373935409559E-2
792 754 -4.3808168090538824E-1
792 755 -3.857259141765401
792 767 -8.657165750758774E-1
792 768 5.403808085818275E-1
792 769 2.2626991418751503
792 777 5.060773377769081E-1
792 778 1.9794875751887415
792 779 -4.583268129584836E1
792 785 -1.348610745436093
792 786 -2.7093998810439794
792 787 -7.947942061599663
792 790 -2.5523550713165326
792 791 1.4296577379926592E1
792 792 1.5020384601427122E2
792 793 5.46906707645767E-1
792 805 3.909330424604218
792 806 -9.853583973315857
792 807 -8.613385908865423E1
792 811 -1.393171601250448
792 812 -2.535643328104252
792 813 -4.207918516876887
792 850 1.7754835621405851
792 851 1.0737486430596257
792 852 2.397537920787713
792 859 -1.706814155794142
792 860 -3.972405738768845E-1
792 861 -7.104559693295775
792 906 1.0361107454382283
792 907 -2.424528690393429
792 908 -9.441881656377573
792 944 6.550834962332759E-1
792 945 -7.86229867627678E-2
792 946 6.179900643772744
793 709 5.898069441266063E-1
793 710 -1.5274122237698942
793 711 1.8612853132235152
793 712 2.2830759162537784E-1
793 713 -2.130899297142503
793 717 -1.7007738306124645E-1
793 718 2.832224791543558
793 724 4.036253445108238E-1
793 725 -7.012996572695731E-1
793 726 -1.1044706752444741E-1
793 727 2.5737330118225205E-1
793 728 -1.861285313294252
793 753 -5.380060537893578E-1
793 754 -9.79939980801136E-1
793 755 -2.0695934308301835E-5
793 756 -8.08572200827828E-1
793 757 -1.0883312921672699
793 758 -1.4014278279023447E-11
793 764 -6.458333333365741E-1
793 765 -1.330357142842883
793 766 -1.5625000000084215
793 767 -6.458333333292657E-1
793 768 -2.2827380951008758
793 769 1.5624999999727298
793 777 7.278191660704272E-1
793 778 5.099857476748065E-2
793 779 -5.466171190384546E-1
793 780 1.2067010897176803E-1
793 781 -1.3854207465985946E-1
793 782 -2.4229023768858924
793 790 7.278402293194445E-1
793 791 1.0037366956963938
793 792 5.46906707645767E-1
793 793 5.294677720845006E1
793 794 -2.2819241469060362E1
793 798 -2.395397168809488E1
793 805 1.206999872442717E-1
793 806 -1.3835181359901744E-1
793 807 2.42260764720185
794 699 3.997075031656877E-1
794 700 -1.8458232850728875
794 701 3.784961826560738E-1
794 707 1.539899569486709
794 708 -1.743962203097511
794 709 8.033262129207019E-1
794 710 -1.189072131047131
794 711 -1.861285313287798
794 712 -1.7007738305827097E-1
794 713 2.8322247915435588
794 714 1.7328592804984357
794 715 -4.978995523541835
794 716 1.7459074473145182
794 717 -3.6845448285518495E-1
794 718 -1.4532084221262547
794 738 -1.9262725334050712
794 739 -1.0510664860658514
794 740 2.831033149643255
794 753 8.173556670004845E-2
794 754 1.139467268133459
794 755 2.0791453123689024E-1
794 756 -1.5343240578051267
794 757 -3.5854389976256795E-1
794 758 -1.6296350885774216
794 764 -5.983072916634833E-1
794 765 -9.310825892411926E-1
794 766 8.300781250063829E-1
794 773 -6.888218718532038E-1
794 780 1.8115422314110403
794 781 -2.894109495340223
794 782 9.754175689470647E-1
794 793 -2.2819241469060362E1
794 794 4.286244363428266E1
794 817 -1.7716346153954858
794 818 -7.245154151430869
794 819 -3.1129807692587574
795 764 -1.8967070774712638
795 765 -2.0445114226900135E-1
795 766 4.4065637655625667E-1
795 767 2.6902349243029505E-1
795 768 -4.212454212388686E-2
795 769 -6.272893772861019E-1
795 783 -1.2985920329610522E1
795 784 -8.333333333333327E-1
795 785 2.1581157005613143
795 786 -4.299505151298776E-1
795 787 7.623353364416396E-1
795 788 -1.2985920329654881E1
795 789 8.33333333333333E-1
795 795 3.4109640646064825E1
795 796 -8.827463473976429E-12
795 811 -4.599332108887182
795 812 -5.922771152733317E-1
795 813 -2.3363855763749086
795 886 2.6902349243267926E-1
795 887 4.212454212504099E-2
795 888 6.272893772918745E-1
795 889 -1.896707077495803
795 890 2.0445114227057082E-1
795 891 -4.4065637655995404E-1
795 893 -1.4751311836950572E-16
795 941 2.158115700575166
795 942 4.299505151290156E-1
795 943 -7.623353364412933E-1
795 955 9.227667869777504E-17
795 957 -4.7363779565046116E-12
795 958 -4.59933210894463
795 959 5.92277115276206E-1
795 960 2.336385576381315
796 764 2.3989709889586985E-2
796 765 2.529613699781326E-1
796 766 -3.286102320556721
796 767 -2.1062271061943702E-1
796 768 -1.186126373627335
796 769 1.271928708195814E-2
796 783 -1.6666666666666667
796 784 -3.2464800824026305E1
796 785 7.623353364416405E-1
796 786 1.6156069861354454
796 787 5.181442623075871
796 788 1.666666666666667
796 789 -3.24648008241372E1
796 795 -8.827463473976429E-12
796 796 7.61697827594235E1
796 811 -2.336385576374909
796 812 -2.1282605057486377
796 813 -7.528150145170358
796 886 2.1062271062520815E-1
796 887 -1.1861263736238534
796 888 1.2719287083182868E-2
796 889 -2.3989709893282862E-2
796 890 2.529613699642903E-1
796 891 -3.2861023206074074
796 893 -1.377253250851419E-15
796 941 -7.623353364412941E-1
796 942 1.6156069861391469
796 943 5.18144262312128
796 955 4.855343220085731E-15
796 957 2.8916370465450636
796 958 2.336385576381315
796 959 -2.128260505762256
796 960 -7.528150145287798
797 719 1.7987998099003405E-1
797 720 -6.349108894884534E-1
797 721 -4.5925413455596703E-1
797 722 -1.4099979159799776E-2
797 723 5.067860531160971E-1
797 724 2.5908250317302206E-1
797 725 -3.78496182680358E-1
797 726 -3.296066703611442E-1
797 727 -2.4711738432334623E-3
797 728 1.125172629782055
797 750 -1.3739364134184953
797 751 -2.506941442199999
797 752 4.410461958095023E-1
797 770 2.3437499996895733E-2
797 771 -1.5265376981947892E-1
797 772 2.4739583334293913E-1
797 797 8.461922671518098
797 798 -1.8458232850077285
797 802 1.2114930787906408
797 803 -1.1823165555972666
797 804 -3.889003948302816E-1
797 814 4.374999998884643E-2
797 815 -2.136805555561939
797 816 -1.0937499999839873
798 712 5.286253445100312E-1
798 713 -7.012996572695734E-1
798 722 3.997075031737152E-1
798 723 -3.78496182680358E-1
798 724 -1.1846106718619207
798 725 -7.029641605808277E-1
798 726 2.6006462634775085
798 727 -6.281324418150427
798 728 1.1541589417550084E-1
798 750 -1.8426055375523815
798 751 -1.0048036302550685
798 752 -2.769618651129949
798 753 4.15882658320696E-2
798 754 1.231748582140913
798 755 -2.0834934358660973E-1
798 756 -1.5249214255550467
798 757 -3.1138368436772623E-1
798 758 1.5939710292396247
798 767 -5.983072916689534E-1
798 768 -9.310825893884966E-1
798 769 -8.300781250040976E-1
798 793 -2.395397168809488E1
798 797 -1.8458232850077285
798 798 4.3925073985783584E1
798 802 1.5399603906019554
798 803 -6.887943738328828E-1
798 804 1.7438196029113273
798 805 1.8115517744381258
798 806 -2.8944847473346504
798 807 -9.753811753767887E-1
798 814 -1.7716346153951037
798 815 -7.24515415149264
798 816 3.11298076930175
799 770 -1.5265376984036255E-1
799 771 2.3437500003116785E-2
799 772 2.4739583333967577E-1
799 799 8.46192267150926
799 800 -1.4099979180800831E-2
799 801 5.067860531484909E-1
799 802 -1.182316555611894
799 803 1.2114930787878506
799 804 -3.889003948281095E-1
799 805 -1.8458232849977172
799 806 2.5908250316524034E-1
799 807 -3.784961826695462E-1
799 820 -2.506941442160411
799 821 -1.3739364134174967
799 822 4.4104619580773535E-1
799 823 -2.1368055555819727
799 824 4.375000000296986E-2
799 825 -1.0937499999980242
799 856 -6.349108895200006E-1
799 857 1.7987998099996658E-1
799 858 -4.5925413457824543E-1
799 859 -2.471173796903807E-3
799 860 -3.296066703608465E-1
799 861 1.1251726297780236
800 770 2.5781250000322753E-1
800 771 5.504712301599695E-1
800 772 -5.26413690482425E-1
800 799 -1.4099979180800831E-2
800 800 1.129159562361345E1
800 801 -4.198146240512655
800 802 1.2114930787878495
800 803 -3.5893080768616654
800 804 6.827891488690074E-1
800 805 3.9970750316601206E-1
800 806 -3.4897538764744938
800 807 2.547080330739707
800 820 -1.3739364134174956
800 821 -5.548891683364447
800 822 1.0074721791757848
800 823 4.8125000000341167E-1
800 824 -8.243055555751763E-1
800 825 5.729166666700058E-1
800 856 -1.951200190009153E-1
800 857 5.1505698891497E-1
800 858 -5.258730284355441E-1
800 859 -7.67106670361289E-1
800 860 1.0951353495873917
800 861 4.401746339761189E-1
801 770 -1.6927083333189702E-1
801 771 -3.8876488095360096E-1
801 772 1.130084325413782
801 799 5.067860531484909E-1
801 800 -4.198146240512655
801 801 1.0902925148312935E1
801 802 -7.563037025100241E-1
801 803 1.5716145356461093
801 804 -1.1176127936158584
801 805 -3.784961826695461E-1
801 806 1.7844315212231385
801 807 -5.7062655596895
801 820 8.577128624793077E-1
801 821 1.7812817029869077
801 822 -2.580321023313607
801 823 -1.0937499999980234
801 824 5.208333334035692E-2
801 825 -2.5201388889013026
801 856 -9.185082689633148E-2
801 857 -3.7303174855332777E-1
801 858 3.87520029589978E-1
801 859 1.1251726297780238
801 860 -2.2946822317692878E-1
801 861 -4.9619123779642826E-1
802 722 -3.5893080768342442
802 723 1.5716145356378102
802 724 -2.0285754235848708
802 725 -3.0778636629740865
802 732 -6.665973189731129E-1
802 733 -1.7942021321835182
802 734 -5.328752957848574E-1
802 750 -2.606144258074867
802 751 1.3622823168256302
802 752 -7.503821126026428E-2
802 753 -3.562569677325061E-1
802 754 -9.958061100023783E-1
802 755 2.2711770156658524
802 770 -8.105445023985169E-1
802 771 -9.385463169626772E-1
802 772 9.10212717921772E-1
802 797 1.2114930787906408
802 798 1.5399603906019554
802 799 -1.182316555611894
802 800 1.2114930787878495
802 801 -7.563037025100241E-1
802 802 2.431616189051009E1
802 803 -2.22186645976537
802 804 1.3921103449540038
802 805 -1.2174454494539666
802 806 1.1659007199091844
802 807 8.527754776932845E-1
802 814 -3.6628224206404774
802 815 -1.4765624999934712
802 816 -1.757812499969123
802 820 -7.6568448301998515
802 821 2.0315570589924956
802 822 -1.0560882372367892
802 823 -5.39306087005784E-1
802 824 -1.0957031250003415
802 825 2.5809151786242207E-1
803 722 1.21149307879064
803 723 -7.563037025127742E-1
803 724 1.539960390601955
803 725 1.7438196029113264
803 732 -1.7942021321835186
803 733 -6.66597318945483E-1
803 734 -1.1596630392092613
803 750 1.3622823168256313
803 751 -8.577207885226935
803 752 7.937069616648869E-1
803 753 -9.958061100023781E-1
803 754 1.4207800337056847E-1
803 755 1.852622418820955
803 770 -9.385463169626767E-1
803 771 -8.10544502382519E-1
803 772 9.102127179086809E-1
803 797 -1.1823165555972666
803 798 -6.887943738328828E-1
803 799 1.2114930787878506
803 800 -3.5893080768616654
803 801 1.5716145356461093
803 802 -2.22186645976537
803 803 2.5831960853100128E1
803 804 -4.893427144702256E-1
803 805 1.165900719909184
803 806 -3.2217332737636744
803 807 -3.4107844750674987
803 814 -1.4765624999934701
803 815 -1.7878224206255753
803 816 -1.9531249997397906E-1
803 820 2.0315570589924947
803 821 -3.035408362245115
803 822 4.438386764101436E-1
803 823 -1.095703125000342
803 824 -2.4143060869895825
803 825 -1.3044084821283632
804 722 6.827891488547091E-1
804 723 -1.117612793579478
804 724 -3.0778636629740865
804 725 -5.144631369852133
804 732 -1.1453216683669887E-2
804 733 -6.382409601146525E-1
804 734 1.1536647642130993E-1
804 750 -3.131334493545418E-1
804 751 1.6270402950080334
804 752 -2.7486436786671997
804 753 2.2711770156658524
804 754 1.8526224188209546
804 755 -3.1122267363441507
804 770 3.149746226729002E-1
804 771 3.1497462266733267E-1
804 772 3.890614560692638E-1
804 797 -3.889003948302816E-1
804 798 1.7438196029113273
804 799 -3.889003948281095E-1
804 800 6.827891488690074E-1
804 801 -1.1176127936158584
804 802 1.3921103449540038
804 803 -4.893427144702256E-1
804 804 2.2126073154069385E1
804 805 8.527754776932863E-1
804 806 -3.4107844750675014
804 807 -4.401002031101404
804 814 -1.7578124999691225
804 815 -1.953124999739795E-1
804 816 -1.856274801565757
804 820 -2.2275490389364228E-1
804 821 2.057434383083454E-1
804 822 -2.683645726791949
804 823 2.5809151786242135E-1
804 824 -1.3044084821283604
804 825 -4.4885115504203055E-1
805 712 -7.247931001292949E-1
805 713 -1.9064182745428115
805 724 -9.620637841431956E-1
805 725 4.6252984608715714E-1
805 753 3.077967431231738E-1
805 754 -1.5138192447978394
805 755 1.0651771518406394
805 767 -3.767271426969713
805 768 -1.1547851562573699
805 769 -1.1701311384147004
805 790 -3.5910683623549915E1
805 791 1.008740333558345
805 792 3.909330424604218
805 793 1.206999872442717E-1
805 798 1.8115517744381258
805 799 -1.8458232849977172
805 800 3.9970750316601206E-1
805 801 -3.784961826695461E-1
805 802 -1.2174454494539666
805 803 1.165900719909184
805 804 8.527754776932863E-1
805 805 5.3648008489685466E1
805 806 -3.581615373687518E-1
805 807 -4.526806559271102
805 814 -5.011869331096912E-1
805 815 3.0468750000644396E-1
805 816 1.6127232142941756
805 820 6.714072760883232E-1
805 821 -1.6136993859503093
805 822 -2.0301138427559704
805 823 -5.59149060271433
805 824 -1.7247596153785556
805 825 1.9187843406948768
805 859 -4.106454303829136
805 860 1.5539371214304434
805 861 1.9064554243977588E-1
806 712 1.206999872442715E-1
806 713 2.422607647201849
806 724 1.811551774438126
806 725 -9.753811753767865E-1
806 753 -1.5138192447978396
806 754 -1.928267766919819
806 755 2.309929875615703
806 767 -8.891601562574797E-1
806 768 -3.053729760299977
806 769 -1.0585239955706596
806 790 8.837403335592268E-1
806 791 -3.7632668727892245E1
806 792 -9.853583973315857
806 793 -1.3835181359901744E-1
806 798 -2.8944847473346504
806 799 2.5908250316524034E-1
806 800 -3.4897538764744938
806 801 1.7844315212231385
806 802 1.1659007199091844
806 803 -3.2217332737636744
806 804 -3.4107844750675014
806 805 -3.581615373687518E-1
806 806 5.526311511127093E1
806 807 8.368679797659862
806 814 3.0468750000644446E-1
806 815 2.4988130668847055
806 816 -8.872767857328479E-1
806 820 -1.6136993859503095
806 821 2.1268007171487016
806 822 -1.5976676609805596
806 823 -1.2247596153785558
806 824 -6.226105987295581
806 825 2.41100045788955
806 859 1.0539371214304427
806 860 -1.3036329417248773
806 861 4.865687664541102E-1
807 712 -1.9064182745428122
807 713 -3.1645999874455955
807 724 4.625298460871587E-1
807 725 2.3406405621975557E-1
807 753 1.0651771518406397
807 754 2.309929875615701
807 755 3.0396137628001174
807 767 -1.1701311384147006
807 768 -1.3747442336692572
807 769 -3.7398745309207593
807 790 3.9093304246042186
807 791 -1.0895250639975174E1
807 792 -8.613385908865423E1
807 793 2.42260764720185
807 798 -9.753811753767887E-1
807 799 -3.784961826695462E-1
807 800 2.547080330739707
807 801 -5.7062655596895
807 802 8.527754776932845E-1
807 803 -3.4107844750674987
807 804 -4.401002031101404
807 805 -4.526806559271102
807 806 8.368679797659862
807 807 1.0511176516309564E2
807 814 1.6127232142941754
807 815 -8.872767857328484E-1
807 816 1.125938917215341
807 820 -2.03011384275597
807 821 -1.5976676609805587
807 822 -2.5467045321644344E-2
807 823 1.9187843406948768
807 824 3.006238553130896
807 825 -7.356731314451327
807 859 1.9064554243977497E-1
807 860 4.8656876645411073E-1
807 861 1.0164176582536066
808 707 -5.393060869760387E-1
808 708 -2.580915178544297E-1
808 761 -3.463925500809797
808 762 -6.484374999973241E-1
808 763 -1.6685267857402117
808 764 -1.141834077428129
808 765 -1.777343749998414E-1
808 766 7.324218750118557E-1
808 773 -1.0957031250033709
808 774 -2.1368055556025882
808 775 4.8125000001978707E-1
808 776 1.0937500000276639
808 780 -5.5914906026642965
808 781 -1.224759615362152
808 782 -1.9187843406716851
808 808 1.5801331400196556E1
808 809 1.029134615348015
808 810 1.6338141025665818
808 817 -2.9279695767157072
808 818 1.6362499999948859
808 819 3.8541666666022545E-1
809 707 -1.0957031250033713
809 708 1.3044084821591782
809 761 -1.4843749999732428E-1
809 762 -1.9639255007950411
809 763 2.362351190627251E-1
809 764 2.597656249998219E-1
809 765 1.7066592256921737E-1
809 766 -3.0924479167513297E-1
809 773 -2.414306086921548
809 774 4.37500000201243E-2
809 775 -8.243055556089558E-1
809 776 -5.2083333353786565E-2
809 780 -1.724759615362153
809 781 -6.226105987208065
809 782 -3.0062385530895543
809 808 1.029134615348015
809 809 1.6985946784671228E1
809 810 3.774839743575537
809 817 1.6362499999948867
809 818 -5.727969576706833
809 819 -1.9479166666789665
810 707 -2.580915178544292E-1
810 708 -4.4885115499445816E-1
810 761 -1.6685267857402122
810 762 -3.59002976171142E-1
810 763 -4.991845001957042
810 764 7.324218750118564E-1
810 765 2.115885416610101E-1
810 766 -1.3985305060143025
810 773 1.3044084821591788
810 774 1.0937500000276636
810 775 -5.729166666899288E-1
810 776 -2.5201388889547554
810 780 -1.9187843406716865
810 781 -2.411000457855688
810 782 -7.356731314342888
810 808 1.6338141025665818
810 809 3.774839743575537
810 810 1.9779145808070815E1
810 817 3.85416666660226E-1
810 818 -1.9479166666789678
810 819 -3.063048941807369
811 764 2.842037187991568
811 765 4.781920758267596E-1
811 766 -8.441834996372122E-1
811 767 -1.4672605015209852
811 768 3.0631704410060745E-1
811 769 5.20833333335463E-1
811 785 -6.970383708007549
811 786 1.6429899725645427E-2
811 787 -7.651296673748872E-2
811 788 -7.465953483703865E-1
811 789 1.4583333333347615
811 790 -2.8548137789885266
811 791 -8.548757454174514E-1
811 792 -1.393171601250448
811 795 -4.599332108887182
811 796 -2.336385576374909
811 811 2.160292129571159E1
811 812 9.990375038916273E-1
811 813 1.4848963368802814
811 906 1.8515527507859662
811 907 -1.9848341791381513E-1
811 908 2.0888892545630013
811 941 1.0822812453095773E-1
811 942 -2.847925759352064E-1
811 943 -1.333977032032838E-1
811 944 -2.0660280226521532
811 945 4.4197006786079346E-1
811 946 -7.693009109093178E-1
811 955 -3.11517736863705E-1
811 957 -5.922771152733313E-1
811 958 -7.700325890593295
811 959 -1.923962439207229E-12
811 960 -8.481014348063785E-13
812 764 4.781920758267604E-1
812 765 3.667324409633137
812 766 2.0290825018139307
812 767 3.063170441006076E-1
812 768 -2.3337912711360866
812 769 -1.0109942825859928
812 785 1.6429899725644376E-2
812 786 -8.223802471605383
812 787 2.5011843000729708
812 788 -3.115177368637048E-1
812 789 1.0416666666595524
812 790 -8.548757454174513E-1
812 791 -4.27316235408393
812 792 -2.535643328104252
812 795 -5.922771152733317E-1
812 796 -2.1282605057486377
812 811 9.990375038916273E-1
812 812 2.4954148588987422E1
812 813 4.122262906286768
812 906 -1.984834179138152E-1
812 907 2.8892523159210732
812 908 8.977997374835893E-1
812 941 -2.847925759352064E-1
812 942 -1.7130430563784815
812 943 1.0912295814264728E-1
812 944 4.419700678607935E-1
812 945 -1.746723636144261
812 946 -6.622846675244085E-1
812 955 -4.421795253621667E-1
812 957 -4.3369260632311954
812 958 -1.9234732661795946E-12
812 959 -8.441096936600129
812 960 -4.36393628649617
813 764 -8.44183499637212E-1
813 765 2.029082501813927
813 766 4.859276539622362
813 767 1.0416666666879773E-1
813 768 -4.1575618734464254E-1
813 769 -1.0508727028538634
813 785 -7.651296673748777E-2
813 786 2.5011843000729685
813 787 -1.6187327416171197E1
813 788 7.291666666673831E-1
813 789 -3.396499639236166E-1
813 790 -7.681716012490237E-1
813 791 -1.4939766614447012
813 792 -4.207918516876887
813 795 -2.3363855763749086
813 796 -7.528150145170358
813 811 1.4848963368802814
813 812 4.122262906286768
813 813 4.1254941438367645E1
813 906 2.0888892545630013
813 907 8.977997374835882E-1
813 908 4.477017175421194
813 941 -3.417310365380436E-1
813 942 -9.32543708516906E-1
813 943 1.6334626148407372
813 944 -4.013424424193973E-2
813 945 -7.366894294359805E-1
813 946 -2.8339235113015793
813 955 5.20833333329777E-1
813 957 -2.128260505748637
813 958 -8.48232240642942E-13
813 959 -4.3639362864961635
813 960 -2.0076855511954435E1
814 722 -8.243055555504977E-1
814 723 5.208333332699594E-2
814 724 -4.87976953611124
814 725 1.7004349817304978
814 767 -1.5772569444110809
814 768 -2.7343750000108874E-1
814 769 -3.255208333353125E-1
814 770 -1.963925500803407
814 771 -1.4843750000106004E-1
814 772 -2.362351190502645E-1
814 797 4.374999998884643E-2
814 798 -1.7716346153951037
814 802 -3.6628224206404774
814 803 -1.4765624999934701
814 804 -1.7578124999691225
814 805 -5.011869331096912E-1
814 806 3.0468750000644446E-1
814 807 1.6127232142941754
814 814 1.633723646733424E1
814 815 1.6853846153865917
814 816 -6.602564103204537E-1
814 823 -2.9279695767078446
814 824 1.6362500000088398
814 825 -3.8541666667651614E-1
815 722 4.8124999998924456E-1
815 723 -1.0937499999839866
815 724 -1.2716346153951035
815 725 3.1129807693017497
815 767 -7.109375000014865E-1
815 768 -2.8897569444031985
815 769 -1.3671874999942382
815 770 -6.484375000010598E-1
815 771 -3.4639255007978056
815 772 1.6685267857273827
815 797 -2.136805555561939
815 798 -7.24515415149264
815 802 -1.4765624999934712
815 803 -1.7878224206255753
815 804 -1.953124999739795E-1
815 805 3.0468750000644396E-1
815 806 2.4988130668847055
815 807 -8.872767857328484E-1
815 814 1.6853846153865917
815 815 2.0752621082675113E1
815 816 -3.1858974359990113
815 823 1.6362500000088407
815 824 -5.727969576678661
815 825 1.947916666654932
816 722 5.72916666657016E-1
816 723 -2.5201388888822027
816 724 1.1051968864816268
816 725 -7.529952686401687
816 767 -8.463541666653316E-1
816 768 -1.3671874999942393
816 769 -3.368923611033075
816 770 3.5900297619860666E-1
816 771 1.6685267857273844
816 772 -4.991845002020387
816 797 -1.0937499999839873
816 798 3.11298076930175
816 802 -1.757812499969123
816 803 -1.9531249997397906E-1
816 804 -1.856274801565757
816 805 1.6127232142941756
816 806 -8.872767857328479E-1
816 807 1.125938917215341
816 814 -6.602564103204537E-1
816 815 -3.1858974359990113
816 816 2.2204245014462167E1
816 823 -3.8541666667651703E-1
816 824 1.9479166666549306
816 825 -3.0630489417743987
817 699 -8.243055555674575E-1
817 700 4.374999999456042E-2
817 701 -5.2083333327257675E-2
817 707 -3.6628224206688635
817 708 1.7578125000274656
817 717 -4.879769536082215
817 718 -1.700434981721717
817 761 -1.963925500782731
817 762 -1.4843750000322098E-1
817 763 2.3623511904841105E-1
817 764 -1.5772569444478384
817 765 -2.7343749999844824E-1
817 766 3.255208333378471E-1
817 773 -1.4765624999879736
817 780 -5.011869331297747E-1
817 781 3.046875000064964E-1
817 782 -1.6127232143118373
817 794 -1.7716346153954858
817 808 -2.9279695767157072
817 809 1.6362499999948867
817 810 3.85416666660226E-1
817 817 1.6337236467394582E1
817 818 1.6853846153891858
817 819 6.60256410286863E-1
818 699 4.812499999934475E-1
818 700 -2.1368055555631944
818 701 1.093750000012788
818 707 -1.4765624999879758
818 708 1.9531249999224126E-1
818 717 -1.2716346153954852
818 718 -3.1129807692587588
818 761 -6.484375000032209E-1
818 762 -3.4639255007679743
818 763 -1.6685267857247887
818 764 -7.109374999973336E-1
818 765 -2.8897569444228095
818 766 1.3671875000036462
818 773 -1.7878224206384385
818 780 3.0468750000649675E-1
818 781 2.498813066855477
818 782 8.872767857191312E-1
818 794 -7.245154151430869
818 808 1.6362499999948859
818 809 -5.727969576706833
818 810 -1.9479166666789678
818 817 1.6853846153891858
818 818 2.0752621082674636E1
818 819 3.1858974359347085
819 699 -5.729166666698837E-1
819 700 1.0937500000127864
819 701 -2.520138888945497
819 707 1.7578125000274663
819 708 -1.8562748015979562
819 717 -1.1051968864728448
819 718 -7.529952686329349
819 761 -3.5900297620045957E-1
819 762 -1.6685267857247892
819 763 -4.9918450019849345
819 764 8.463541666804717E-1
819 765 1.3671875000036466
819 766 -3.3689236111570944
819 773 1.9531249999224043E-1
819 780 -1.612723214311837
819 781 8.872767857191306E-1
819 782 1.1259389172225278
819 794 -3.1129807692587574
819 808 3.8541666666022545E-1
819 809 -1.9479166666789665
819 810 -3.063048941807369
819 817 6.60256410286863E-1
819 818 3.1858974359347085
819 819 2.220424501459967E1
820 732 -1.135410976768592
820 733 7.039169761841821E-1
820 734 1.9200231768390877E-1
820 753 -1.782689982068215
820 754 -5.5517110035480544E-2
820 755 -1.977248124226346E-1
820 799 -2.506941442160411
820 800 -1.3739364134174956
820 801 8.577128624793077E-1
820 802 -7.6568448301998515
820 803 2.0315570589924947
820 804 -2.2275490389364228E-1
820 805 6.714072760883232E-1
820 806 -1.6136993859503095
820 807 -2.03011384275597
820 820 2.3834912805517373E1
820 821 -1.6463607196036807
820 822 -1.1480954210187342
820 856 -1.4629217416315612
820 857 1.3343936589903567
820 858 -9.502210425108636E-1
820 859 -4.0649713484524375
820 860 1.9690170499430484
820 861 2.676065922046459
820 877 -5.896539760324629
820 878 -1.3493711151031154
820 879 8.231289203921694E-1
821 732 7.039169761841836E-1
821 733 -5.314516134010784
821 734 -7.458941297103773E-1
821 753 -5.5517110035481015E-2
821 754 -2.5032181647618095
821 755 3.059801187267553
821 799 -1.3739364134174967
821 800 -5.548891683364447
821 801 1.7812817029869077
821 802 2.0315570589924956
821 803 -3.035408362245115
821 804 2.057434383083454E-1
821 805 -1.6136993859503093
821 806 2.1268007171487016
821 807 -1.5976676609805587
821 820 -1.6463607196036807
821 821 2.3358291673248495E1
821 822 -9.664608495253786E-1
821 856 1.3343936589903571
821 857 -2.2932971250319296
821 858 1.0968278125126123
821 859 1.9690170499430488
821 860 -4.642007287553508
821 861 -2.8961759834524803
821 877 -1.349371115103117
821 878 -2.147753633429602
821 879 6.254448259337614E-2
822 732 2.1652445960634592E-2
822 733 2.458518517648023E-1
822 734 -1.078968217972612
822 753 -1.9772481242263504E-1
822 754 3.059801187267552
822 755 -6.461094384349039
822 799 4.4104619580773535E-1
822 800 1.0074721791757848
822 801 -2.580321023313607
822 802 -1.0560882372367892
822 803 4.438386764101436E-1
822 804 -2.683645726791949
822 805 -2.0301138427559704
822 806 -1.5976676609805596
822 807 -2.5467045321644344E-2
822 820 -1.1480954210187342
822 821 -9.664608495253786E-1
822 822 2.0264697142299983E1
822 856 -3.6320450411601657E-1
822 857 2.8365325960720983E-1
822 858 -2.8890050218691177E-1
822 859 2.6760659220464604
822 860 -2.8961759834524807
822 861 -5.0562553591004145
822 877 1.656462253735316
822 878 4.1968733973292616E-1
822 879 -2.090044883263801
823 767 -1.1418340773865663
823 768 -1.7773437499971223E-1
823 769 -7.32421875006398E-1
823 770 -3.4639255008071137
823 771 -6.48437499998624E-1
823 772 1.6685267857332606
823 799 -2.1368055555819727
823 800 4.8125000000341167E-1
823 801 -1.0937499999980234
823 802 -5.39306087005784E-1
823 803 -1.095703125000342
823 804 2.5809151786242135E-1
823 805 -5.59149060271433
823 806 -1.2247596153785558
823 807 1.9187843406948768
823 814 -2.9279695767078446
823 815 1.6362500000088407
823 816 -3.8541666667651703E-1
823 823 1.5801331400203614E1
823 824 1.0291346153649814
823 825 -1.63381410260962
824 767 2.5976562500072997E-1
824 768 1.706659226141754E-1
824 769 3.092447916581111E-1
824 770 -1.4843749999862427E-1
824 771 -1.9639255008015146
824 772 -2.3623511905774774E-1
824 799 4.375000000296986E-2
824 800 -8.243055555751763E-1
824 801 5.208333334035692E-2
824 802 -1.0957031250003415
824 803 -2.4143060869895825
824 804 -1.3044084821283604
824 805 -1.7247596153785556
824 806 -6.226105987295581
824 807 3.006238553130896
824 814 1.6362500000088398
824 815 -5.727969576678661
824 816 1.9479166666549306
824 823 1.0291346153649814
824 824 1.698594678472634E1
824 825 -3.774839743598187
825 767 -7.324218750063993E-1
825 768 -2.1158854167153773E-1
825 769 -1.3985305059467583
825 770 1.6685267857332609
825 771 3.590029761836002E-1
825 772 -4.9918450019933385
825 799 -1.0937499999980242
825 800 5.729166666700058E-1
825 801 -2.5201388889013026
825 802 2.5809151786242207E-1
825 803 -1.3044084821283632
825 804 -4.4885115504203055E-1
825 805 1.9187843406948768
825 806 2.41100045788955
825 807 -7.356731314451327
825 814 -3.8541666667651614E-1
825 815 1.947916666654932
825 816 -3.0630489417743987
825 823 -1.63381410260962
825 824 -3.774839743598187
825 825 1.977914580810916E1
826 741 -1.4671884006057643
826 742 1.3364829077980822
826 743 3.637823522516982E-1
826 774 -6.353401243119075E-1
826 775 -1.9423342527176332E-1
826 776 9.188346754059823E-2
826 826 8.72906363760836
826 827 -2.922224822756724E-1
826 828 -4.3383723048089456E-1
826 829 -8.703512993259361E-1
826 830 3.4444061327797065E-2
826 831 5.142106815788945E-1
826 841 -1.4391615964345816
826 842 -2.917334252813368E-1
826 843 -1.8511584534837886
826 844 -3.208856955065108
826 845 2.431111877341297E-1
826 846 1.5426320445678081
826 870 -1.1081652618650628
826 871 -8.358488240312365E-1
826 872 -2.2751286197431575E-1
827 741 1.3364829077980822
827 742 -2.3040500009280307
827 743 -2.851696787451404E-1
827 774 1.807665747275624E-1
827 775 5.147309986099614E-1
827 776 3.7291447423341983E-1
827 826 -2.922224822756724E-1
827 827 9.682063972784043
827 828 3.8960311563347947
827 829 -2.78055938671233E-1
827 830 2.7659187972469546E-1
827 831 5.513009183237608E-1
827 841 -6.667334252806635E-1
827 842 -8.265392879425725E-1
827 843 -7.942071154125885E-1
827 844 5.556111877331603E-1
827 845 -3.7193755454744486
827 846 -2.51276391175594
827 870 -8.358488240312358E-1
827 871 -3.623422016773647
827 872 -1.2281058429783063
828 741 9.514517025667366E-1
828 742 -1.1006897176784147
828 743 -2.922308429183335E-1
828 774 4.594173376065498E-1
828 775 5.252866569290109E-1
828 776 3.8745413122586403E-1
828 826 -4.3383723048089456E-1
828 827 3.8960311563347947
828 828 1.246103208637474E1
828 829 -7.34586687361437E-2
828 830 3.995590524828192E-1
828 831 8.422850929955004E-1
828 841 -1.85115845348379
828 842 -5.015949638133643E-2
828 843 -3.2109007346972187
828 844 1.5426320445678092
828 845 -1.5455020069817245
828 846 -8.344645101320044
828 870 -5.950467320402671E-1
828 871 -2.124525644705149
828 872 -1.8429946316605073
829 576 -3.5669318427577057E-1
829 577 1.328781415369179E-1
829 634 2.714081735963155E-1
829 826 -8.703512993259361E-1
829 827 -2.78055938671233E-1
829 828 -7.34586687361437E-2
829 829 1.0226139497812992E1
829 830 2.5845053797597656E-1
829 831 2.0665238105305903E-1
829 838 -2.19156884431882
829 839 -1.9285058076950962E-1
829 840 -1.7811161388892183
829 841 -4.998850350085997
829 842 1.542804646155504E-1
829 843 1.4248929111108455
829 870 3.236549569336764E-1
829 871 9.040599946376073E-1
829 872 5.85484239634387E-1
829 873 -2.1323307767401465
829 874 -9.787626193253095E-1
829 875 -6.338628977692451E-1
830 576 -1.1712185846221274E-1
830 577 5.327722244588855E-1
830 634 4.4330232479518505E-1
830 826 3.4444061327797065E-2
830 827 2.7659187972469546E-1
830 828 3.995590524828192E-1
830 829 2.5845053797597656E-1
830 830 1.0652522800159387E1
830 831 4.303004872161301
830 838 -5.053505807685393E-1
830 839 -1.519997708134474
830 840 -6.398262682877643E-1
830 841 4.042804646146811E-1
830 842 -5.536107259033272
830 843 -2.583377080608843
830 870 9.040599946376059E-1
830 871 -5.935902337633513E-1
830 872 -2.533524971641013E-1
830 873 -9.787626193253087E-1
830 874 -3.8121917034118717
830 875 -1.6693104033785955
831 576 -2.714081734978678E-1
831 577 4.4955481806082753E-1
831 634 1.2965703185892212
831 826 5.142106815788945E-1
831 827 5.513009183237608E-1
831 828 8.422850929955004E-1
831 829 2.0665238105305903E-1
831 830 4.303004872161301
831 831 1.768151806485147E1
831 838 -1.7811161388892176
831 839 1.7862611264578454E-1
831 840 -5.188690531981219
831 841 1.4248929111108444
831 842 -1.690519937736005
831 843 -1.272931113826757E1
831 870 1.1283005867285687
831 871 -1.1524621333025828
831 872 1.457574860006061
831 873 -1.2215322480842814
831 874 -2.6395046501530843
831 875 -3.359946666193465
832 753 -2.263770105823199
832 754 2.1212665612838664
832 755 1.0507892779531047
832 777 -3.9059274083682183E-1
832 778 -2.2221710356856036E-1
832 779 6.959945207298643E-1
832 832 5.2702209840945486E1
832 833 -2.052107657066592E-1
832 834 3.8640473216000997
832 835 -1.3382171494309734
832 836 6.687456559862195E-1
832 837 -1.5859727156242238
832 841 -7.912489601961719
832 842 1.247724444281333
832 843 2.9608003044375653
832 844 -1.8741904915690824E1
832 845 -1.3412898907589499
832 846 -6.0887373774492195
832 850 -2.135581680340066E1
832 851 -5.409592999466106E-3
832 852 -4.281025165525318E-2
832 870 1.7733860179852268
832 871 -1.0445731881354278E-1
832 872 3.53932939902292E-1
832 883 -7.183402560514046E-1
832 884 -1.9404019897040392
832 885 -1.3122106865641785
832 906 -1.4538690476765816
832 907 -6.562500000003194E-1
832 908 3.125000000097133E-1
832 909 -3.005952380585304E-1
832 910 4.3750000000011846E-1
832 911 -2.083333333397641E-1
833 753 2.121266561283866
833 754 -3.4075159160792348
833 755 -9.286097417671397E-1
833 777 -9.721710356788625E-2
833 778 1.2397267959216345
833 779 -4.604418738035593E-1
833 832 -2.052107657066592E-1
833 833 5.0387250095182836E1
833 834 -1.4840111713139614
833 835 4.812456559852498E-1
833 836 3.003792675644967E-1
833 837 -2.3853747623509264E-1
833 841 1.1227244442806572
833 842 -7.03122291414057
833 843 -1.4571393495166551
833 844 -1.153789890757979
833 845 -1.5931573886864083E1
833 846 -1.4334513258748653
833 850 -5.409592999466197E-3
833 851 -2.128763915015271E1
833 852 3.0535651727963824
833 870 -1.0445731881354231E-1
833 871 5.881822033843875E-1
833 872 2.5850236831432833
833 883 -1.9404019897040385
833 884 -6.245507805071615E-1
833 885 -1.3477074412478007
833 906 -6.562500000003187E-1
833 907 -3.175297619107072
833 908 9.672619048147005E-1
833 909 4.375000000001179E-1
833 910 -1.0577380952025204
833 911 7.440476190047076E-1
834 753 1.0507892779531018
834 754 -9.286097417671381E-1
834 755 -3.3647572140675747E-1
834 777 9.043278540617737E-1
834 778 -4.604418738162912E-1
834 779 2.481870283845358
834 832 3.8640473216000997
834 833 -1.4840111713139614
834 834 9.206151420681137E1
834 835 -1.898472715622158
834 836 -2.3853747621666935E-1
834 837 1.652667823259629
834 841 2.960800304437565
834 842 -2.201186968547906
834 843 -1.061166472050796E1
834 844 -6.088737377449219
834 845 -2.400713230649082
834 846 -2.8750551209037415E1
834 850 -4.281025165525353E-2
834 851 3.0535651727963824
834 852 -5.3458565325990556E1
834 870 3.539329399022926E-1
834 871 2.585023683143283
834 872 -2.219676445174379
834 883 -1.3122106865641752
834 884 -1.347707441247801
834 885 8.915953939638248E-1
834 906 6.25000000007645E-1
834 907 1.934523809570493
834 908 -1.3226190477606705
834 909 -4.166666666716732E-1
834 910 1.4880952380486903
834 911 -3.880952380024481E-1
835 578 -1.9767900444446627
835 640 -1.4354448391352252
835 832 -1.3382171494309734
835 833 4.812456559852498E-1
835 834 -1.898472715622158
835 835 4.988461343004455E1
835 836 1.2990519032821657E-1
835 837 9.056772396010205
835 838 -1.610136984602379E1
835 839 -5.193712186968836E-1
835 840 -2.1088952384121495
835 841 -1.1411407470235751E1
835 842 4.7331961079107776E-1
835 843 -4.182879945887425
835 847 -1.723515403122746E1
835 848 2.500000000093676E-1
835 849 -2.975056345017072
835 850 3.8416189659277417E-1
835 851 -2.500000000093675E-1
835 852 2.9750563450170735
835 873 7.82249588064238
835 874 7.252960953697743E-2
835 875 2.314702752837337
835 883 -8.223769173820047
835 884 -5.796687458659877E-2
835 885 -1.8499490764605033
835 892 -4.3382864002382643E-1
835 909 -1.5039682540696317
835 910 -5.833333333339511E-1
835 911 4.1666666667760327E-1
835 912 -3.005952380273851E-1
835 913 4.3749999999973943E-1
835 914 -3.125000000076853E-1
836 578 -6.838286400246959E-1
836 640 -1.0836871238701367
836 832 6.687456559862195E-1
836 833 3.003792675644967E-1
836 834 -2.3853747621666935E-1
836 835 1.2990519032821657E-1
836 836 4.398511179455171E1
836 837 -3.4914882877605615
836 838 -7.068712186978523E-1
836 839 -1.0729041224809716E1
836 840 -3.2172832052436673E-1
836 841 7.233196107919475E-1
836 842 -8.72126781004482
836 843 1.3290951321420357
836 847 2.5000000000936784E-1
836 848 -1.7373196900034994E1
836 849 2.371316228544896
836 850 -2.5000000000936756E-1
836 851 9.604047420806094E-1
836 852 -5.856019427671353E-1
836 873 7.252960953697679E-2
836 874 4.255724723336104
836 875 1.540577597278026
836 883 -5.796687458659855E-2
836 884 -8.330995971855131
836 885 -1.2312553306495806
836 892 6.22067760855011E-2
836 909 -5.833333333339512E-1
836 910 -3.351587301700986
836 911 8.928571429202832E-1
836 912 4.3749999999973943E-1
836 913 -1.0577380951727764
836 914 8.184523809032086E-1
837 578 -1.8521115057998232
837 640 1.0123305551870427
837 832 -1.5859727156242238
837 833 -2.3853747623509264E-1
837 834 1.652667823259629
837 835 9.056772396010205
837 836 -3.4914882877605615
837 837 7.383799925932676E1
837 838 -2.1088952384121513
837 839 -1.1401807014579184
837 840 -1.5581704444335585E1
837 841 -4.182879945887427
837 842 4.3623798926919505E-1
837 843 -1.554819901460994E1
837 847 -2.9750563450170726
837 848 2.3713162285448948
837 849 -4.294984220926112E1
837 850 2.975056345017074
837 851 -5.856019427671355E-1
837 852 3.8416189599410094E-1
837 873 2.314702752837338
837 874 1.540577597278026
837 875 4.681080628785972
837 883 -1.8499490764605029
837 884 -1.2312553306495797
837 885 -5.713097668881858
837 892 -1.083687123852556
837 909 8.333333333422025E-1
837 910 1.7857142857755457
837 911 -1.3873015875421721
837 912 -6.250000000056175E-1
837 913 1.6369047618551824
837 914 -3.8809523792283623E-1
838 576 -1.9041773829415167
838 577 4.6678046461319167E-1
838 578 -8.696199323762986
838 582 -1.184121696023137
838 583 -3.885241815906592E-1
838 634 1.4248929111078166
838 640 -3.177613974373548
838 646 2.0355613016367655E-1
838 829 -2.19156884431882
838 830 -5.053505807685393E-1
838 831 -1.7811161388892176
838 835 -1.610136984602379E1
838 836 -7.068712186978523E-1
838 837 -2.1088952384121513
838 838 3.601987770816517E1
838 839 2.47486389110595
838 840 5.714855494489585
838 841 -1.2071589288308375
838 842 6.114758184058549E-1
838 843 2.035561301560834E-1
838 873 -1.1580553356762227E1
838 874 -1.0460066518372164
838 875 -2.3868284588542696
838 883 6.845271670498138
838 884 8.35985975808683E-1
838 885 1.9075931446120227
838 892 -1.7423535170394135
839 576 2.7928046461395956E-1
839 577 -1.7239675840550257
839 578 -2.054853517040183
839 582 -8.885241815906602E-1
839 583 7.294898792943026E-1
839 634 -5.361517584680797E-2
839 640 -2.2308187750249173
839 646 7.789053150355184E-1
839 829 -1.9285058076950962E-1
839 830 -1.519997708134474
839 831 1.7862611264578454E-1
839 835 -5.193712186968836E-1
839 836 -1.0729041224809716E1
839 837 -1.1401807014579184
839 838 2.47486389110595
839 839 2.813162864563538E1
839 840 1.3915544222315053
839 841 1.1114758184058549
839 842 6.718967973415163E-1
839 843 7.789053150064661E-1
839 873 -1.0460066518372146
839 874 -1.1060641558321219E1
839 875 1.4773314075051882
839 883 8.359859758086858E-1
839 884 2.8145996754162974
839 885 -1.1807079200948187
839 892 -7.3139669223670625
840 576 1.4248929111078152
840 577 -8.72067556816344E-1
840 578 -3.177613974373547
840 582 2.0355613016367619E-1
840 583 7.789053150355186E-1
840 634 -5.71009542823851
840 640 -9.983918052634992
840 646 2.0510637326882986
840 829 -1.7811161388892183
840 830 -6.398262682877643E-1
840 831 -5.188690531981219
840 835 -2.1088952384121495
840 836 -3.2172832052436673E-1
840 837 -1.5581704444335585E1
840 838 5.714855494489585
840 839 1.3915544222315053
840 840 3.653398513537832E1
840 841 2.0355613015608298E-1
840 842 7.789053150064661E-1
840 843 2.0280264998182442
840 873 -2.3868284588542714
840 874 1.4773314075051849
840 875 -8.658922168276828
840 883 1.9075931446120244
840 884 -1.180707920094819
840 885 4.510255257582261
840 892 -1.4123663940553806
841 826 -1.4391615964345816
841 827 -6.667334252806635E-1
841 828 -1.85115845348379
841 829 -4.998850350085997
841 830 4.042804646146811E-1
841 831 1.4248929111108444
841 832 -7.912489601961719
841 833 1.1227244442806572
841 834 2.960800304437565
841 835 -1.1411407470235751E1
841 836 7.233196107919475E-1
841 837 -4.182879945887427
841 838 -1.2071589288308375
841 839 1.1114758184058549
841 840 2.0355613015608298E-1
841 841 3.097191533682886E1
841 842 -2.8528702585710812
841 843 1.1462881819629942
841 844 -9.817252020983456E-1
841 845 1.8699931033636402E-1
841 846 2.203760063569929E-1
841 870 -3.337201649128705
841 871 2.3312693328693155
841 872 -1.5672451355876322
841 873 -8.036262689543006E-1
841 874 -1.709904552801219
841 875 1.4408647513239647
841 883 1.1197057309013747
841 884 -6.505607446458568E-1
841 885 2.0450524961040356E-1
842 826 -2.917334252813368E-1
842 827 -8.265392879425725E-1
842 828 -5.015949638133643E-2
842 829 1.542804646155504E-1
842 830 -5.536107259033272
842 831 -1.690519937736005
842 832 1.247724444281333
842 833 -7.03122291414057
842 834 -2.201186968547906
842 835 4.7331961079107776E-1
842 836 -8.72126781004482
842 837 4.3623798926919505E-1
842 838 6.114758184058549E-1
842 839 6.718967973415163E-1
842 840 7.789053150064661E-1
842 841 -2.8528702585710812
842 842 2.651366634590648E1
842 843 1.1643173164531082
842 844 6.869993103363627E-1
842 845 1.5403694035901512
842 846 1.0334656996350395
842 870 2.3312693328693155
842 871 -5.2132406938795866
842 872 2.462065665853424
842 873 -1.7099045528012196
842 874 5.822535838905277E-1
842 875 9.821122446071322E-1
842 883 -6.50560744645857E-1
842 884 -1.9798081656878537
842 885 -2.915237828159117
843 826 -1.8511584534837886
843 827 -7.942071154125885E-1
843 828 -3.2109007346972187
843 829 1.4248929111108455
843 830 -2.583377080608843
843 831 -1.272931113826757E1
843 832 2.9608003044375653
843 833 -1.4571393495166551
843 834 -1.061166472050796E1
843 835 -4.182879945887425
843 836 1.3290951321420357
843 837 -1.554819901460994E1
843 838 2.035561301560834E-1
843 839 7.789053150064661E-1
843 840 2.0280264998182442
843 841 1.1462881819629942
843 842 1.1643173164531082
843 843 3.993274371033847E1
843 844 2.2037600635699134E-1
843 845 1.03346569963504
843 846 2.52078412567971
843 870 -1.5672451355876307
843 871 2.462065665853423
843 872 -3.2366625448371664
843 873 1.4408647513239627
843 874 9.821122446071298E-1
843 875 2.31464304101405
843 883 2.0450524961040165E-1
843 884 -2.9152378281591167
843 885 -1.4594592239306228
844 741 -4.070475671388692
844 742 1.9696188753955277
844 743 -2.678876601187231
844 753 5.769923822532963E-2
844 754 6.002057419438209E-1
844 755 5.674296595953344E-1
844 774 -1.995026213702872E-3
844 775 -7.669342771365506E-1
844 776 -1.1255724770747766
844 777 -2.5454657904362095
844 778 -4.433063811095318E-1
844 779 1.7068141558368737
844 780 -4.10850070835213
844 781 1.0553668950031843
844 782 -1.92193411256904E-1
844 826 -3.208856955065108
844 827 5.556111877331603E-1
844 828 1.5426320445678092
844 832 -1.8741904915690824E1
844 833 -1.153789890757979
844 834 -6.088737377449219
844 841 -9.817252020983456E-1
844 842 6.869993103363627E-1
844 843 2.2037600635699134E-1
844 844 3.390476985713706E1
844 845 -6.078679680348943E-1
844 846 5.000554810688295
844 870 -3.0354482611737676E-1
844 871 -1.8959034933731003
844 872 1.0475731899228262
845 741 1.9696188753955264
845 742 -4.651626519547658
845 743 2.9046726511747942
845 753 6.002057419438207E-1
845 754 -2.7889208122885636
845 755 -2.2085452637755747
845 774 -3.294342771368871E-1
845 775 1.0967170869446567
845 776 2.30904833391551E-1
845 777 -3.808063811091946E-1
845 778 -2.7264086775244682
845 779 3.9653337802982525E-1
845 780 1.5553668950031845
845 781 -1.3071041067216613
845 782 -4.8629927271038986E-1
845 826 2.431111877341297E-1
845 827 -3.7193755454744486
845 828 -1.5455020069817245
845 832 -1.3412898907589499
845 833 -1.5931573886864083E1
845 834 -2.400713230649082
845 841 1.8699931033636402E-1
845 842 1.5403694035901512
845 843 1.03346569963504
845 844 -6.078679680348943E-1
845 845 2.9456552261600798E1
845 846 1.4484920419081906
845 870 -1.8959034933730994
845 871 -9.686292037147239E-1
845 872 6.269911699773689E-1
846 741 -2.6788766011872305
846 742 2.904672651174794
846 743 -5.068966901901135
846 753 5.674296595953364E-1
846 754 -2.208545263775577
846 755 -7.955307173380416E-1
846 774 -1.1255724770747766
846 775 -4.387380237400415E-1
846 776 -4.9589054107224334E-1
846 777 1.706814155836872
846 778 1.0661762351614197
846 779 -7.1044012331541815
846 780 -1.921934112569033E-1
846 781 -4.8629927271039036E-1
846 782 1.0145304671375763
846 826 1.5426320445678081
846 827 -2.51276391175594
846 828 -8.344645101320044
846 832 -6.0887373774492195
846 833 -1.4334513258748653
846 834 -2.8750551209037415E1
846 841 2.203760063569929E-1
846 842 1.0334656996350395
846 843 2.52078412567971
846 844 5.000554810688295
846 845 1.4484920419081906
846 846 4.575971114782974E1
846 870 1.047573189922826
846 871 6.269911699773693E-1
846 872 1.2649599631760267
847 578 3.8416189650487187E-1
847 587 -2.8389863003860127
847 640 3.2875563450170677
847 686 -1.8521115058073794
847 835 -1.723515403122746E1
847 836 2.5000000000936784E-1
847 837 -2.9750563450170726
847 847 5.179325375814896E1
847 848 9.18676760059638E-2
847 849 -2.774480736325862
847 850 -1.944366396898761
847 851 4.187456559608101E-1
847 852 -1.0505419626646342
847 862 -1.1425841098025113E1
847 863 4.697589397035464E-1
847 864 4.171111806806834
847 865 -1.595388535073422E1
847 866 -5.252893209179441E-1
847 867 2.0311544987259995
847 880 7.760460541386484
847 881 7.630205300652647E-2
847 882 -2.2759975112667963
847 883 -8.186003385841168
847 884 -6.109803038310585E-2
847 885 1.822479993865633
847 892 -2.500000000093691E-1
847 909 -2.4662698411544994
847 910 -5.833333333269184E-1
847 911 -1.2500000000082703
847 912 2.3412698399232987E-1
847 913 5.833333333269186E-1
847 914 9.375000000082685E-1
847 947 1.2340029762270652
847 948 -4.3750000000360867E-1
847 949 2.8645833332210036E-1
847 950 -1.3554997519924725
847 951 4.010416666729629E-1
847 952 -3.580729166558887E-1
847 956 -4.338286400451498E-1
848 578 -2.5000000000936834E-1
848 587 -6.838286400438662E-1
848 640 9.768980572368274E-1
848 686 1.0678906661819434E-1
848 835 2.500000000093676E-1
848 836 -1.7373196900034994E1
848 837 2.3713162285448948
848 847 9.18676760059638E-2
848 848 4.492226800995862E1
848 849 -3.0048595175578163E-1
848 850 6.062456559595322E-1
848 851 1.0699275577810011E-1
848 852 9.915501333134891E-1
848 862 7.197589397022641E-1
848 863 -8.725243107331522
848 864 -1.314635990370905
848 865 -7.127893209166661E-1
848 866 -1.0640561369275789E1
848 867 3.1737956473848583E-1
848 880 7.630205300652673E-2
848 881 4.217056320582679
848 882 -1.5430981398345638
848 883 -6.109803038310685E-2
848 884 -8.306511240683593
848 885 1.2356188767774547
848 892 9.604047419758628E-1
848 909 -5.833333333269184E-1
848 910 -2.40912698397914
848 911 -2.6785714285312365
848 912 5.833333333269184E-1
848 913 1.7698412681739584E-1
848 914 -2.455357142898393
848 947 -4.375000000036088E-1
848 948 4.7686011911912185E-1
848 949 9.486607142799522E-1
848 950 4.010416666729627E-1
848 951 -2.5376426091620714
848 952 1.3439360118815806
848 956 -8.68283863764669E-1
849 578 3.287556345017069
849 587 -1.435444839138645
849 640 3.841618957911933E-1
849 686 5.001342992327862E-1
849 835 -2.975056345017072
849 836 2.371316228544896
849 837 -4.294984220926112E1
849 847 -2.774480736325862
849 848 -3.0048595175578163E-1
849 849 7.610542299140248E1
849 850 -1.5713752960000362
849 851 9.915501333131771E-1
849 852 1.6932819688372804
849 862 4.171111806806833
849 863 -4.2177884753095285E-1
849 864 -1.55294136938216E1
849 865 2.0311544987259986
849 866 1.1358319457083723
849 867 -1.5435146650348777E1
849 880 -2.2759975112667963
849 881 -1.5430981398345631
849 882 4.609166907650334
849 883 1.8224799938656329
849 884 1.2356188767774556
849 885 -5.662639641438968
849 892 9.768980572368304E-1
849 909 -1.2500000000082698
849 910 -2.6785714285312388
849 911 -5.697817460067382
849 912 9.375000000082687E-1
849 913 -2.4553571428983925
849 914 1.1746031716153166E-1
849 947 -1.302083333466333E-1
849 948 5.580357143965298E-2
849 949 3.4484002976723582
849 950 1.6276041667951185E-1
849 951 5.254836309120039E-1
849 952 -1.583169022810106
849 956 1.0678906661853994E-1
850 753 -2.5694746201689047
850 754 2.1200680174825894
850 755 -1.0519686609769634
850 777 8.668665504246498E-1
850 778 2.4984158816768526E-1
850 779 -2.5756447494992094
850 790 -1.5579608185630935
850 791 -3.4713789765466585E-1
850 792 1.7754835621405851
850 832 -2.135581680340066E1
850 833 -5.409592999466197E-3
850 834 -4.281025165525353E-2
850 835 3.8416189659277417E-1
850 836 -2.5000000000936756E-1
850 837 2.975056345017074
850 847 -1.944366396898761
850 848 6.062456559595322E-1
850 849 -1.5713752960000362
850 850 5.783126219720109E1
850 851 -2.3527384608837432E-1
850 852 -2.9669227510869134
850 859 -1.8742726325078056E1
850 860 -1.347010796816198
850 861 6.075529002426112
850 862 -7.906767850901429
850 863 1.2441626581472407
850 864 -2.966765901569656
850 877 1.7714905149170148
850 878 -1.0171639056230836E-1
850 879 -3.489660149461287E-1
850 883 -1.0065993506086766
850 884 -1.9417239410818565
850 885 1.308706685841276
850 906 -5.160443722799068
850 907 -4.772727272707913E-1
850 908 -2.130681818178929
850 909 -2.48836580103253
850 910 4.7727272727079173E-1
850 911 1.8181818181808602
850 944 7.732345779235863E-1
850 945 -5.17045454547153E-1
850 946 2.9592803029407266E-1
850 947 1.1055059523920658
850 948 5.250000000023427E-1
850 949 -5.937499999868897E-1
851 753 2.120068017482587
851 754 -4.167880542602311
851 755 9.332207394799261E-1
851 777 2.4984158816768506E-1
851 778 2.1671663757147948
851 779 -3.898096051854219E-1
851 790 -2.2213789765554748E-1
851 791 -3.9922911315708803E-1
851 792 1.0737486430596257
851 832 -5.409592999466106E-3
851 833 -2.128763915015271E1
851 834 3.0535651727963824
851 835 -2.500000000093675E-1
851 836 9.604047420806094E-1
851 837 -5.856019427671355E-1
851 847 4.187456559608101E-1
851 848 1.0699275577810011E-1
851 849 9.915501333131771E-1
851 850 -2.3527384608837432E-1
851 851 5.491996679867235E1
851 852 -2.3151865968809746
851 859 -1.1595107968174752
851 860 -1.593396668077828E1
851 861 1.4398223462259074
851 862 1.1191626581481227
851 863 -7.0251075333102415
851 864 1.4563880990652154
851 877 -1.0171639056230894E-1
851 878 5.861036892938338E-1
851 879 -2.586974937264431
851 883 -1.9417239410818556
851 884 -1.3549241662018092
851 885 1.3424949395134629
851 906 -4.772727272707913E-1
851 907 -6.022781385127832
851 908 -2.617694805127886
851 909 4.7727272727079184E-1
851 910 -3.054599567277297
851 911 -2.516233766304734
851 944 -5.170454545471529E-1
851 945 -3.6572646101063594E-1
851 946 -3.4327651514729435E-1
851 947 5.250000000023431E-1
851 948 8.712202380785186E-1
851 949 1.0639880952241794
852 753 -1.051968660976962
852 754 9.332207394799243E-1
852 755 -6.43461809264009E-1
852 777 -2.5756447494992085
852 778 -3.8980960518542207E-1
852 779 8.668665507714814E-1
852 790 1.1504835621391607
852 791 1.0737486430593928
852 792 2.397537920787713
852 832 -4.281025165525318E-2
852 833 3.0535651727963824
852 834 -5.3458565325990556E1
852 835 2.9750563450170735
852 836 -5.856019427671353E-1
852 837 3.8416189599410094E-1
852 847 -1.0505419626646342
852 848 9.915501333134891E-1
852 849 1.6932819688372804
852 850 -2.9669227510869134
852 851 -2.3151865968809746
852 852 1.0118252969130783E2
852 859 6.075529002426114
852 860 2.407084250973909
852 861 -2.8711518098517203E1
852 862 -2.966765901569657
852 863 2.20043571812801
852 864 -1.061621920421563E1
852 877 -3.4896601494612983E-1
852 878 -2.5869749372644333
852 879 -2.22712405338583
852 883 1.3087066858412748
852 884 1.3424949395134629
852 885 6.055238565536752E-1
852 906 -2.130681818178929
852 907 -2.617694805127883
852 908 -1.160922619012519E1
852 909 1.8181818181808604
852 910 -2.5162337663047336
852 911 -6.084226190880273
852 944 -2.2490530304132872E-1
852 945 -1.3105384198956083
852 946 2.749888392830778
852 947 3.12500000145336E-2
852 948 3.199404761616194E-1
852 949 3.4705505952958253
853 591 -3.578453217593938E-1
853 592 1.2846073056835328E-1
853 593 -2.719251416958812E-1
853 853 1.0221819481069684E1
853 854 2.640175800657375E-1
853 855 -2.047904740616518E-1
853 856 -8.697151769168314E-1
853 857 -2.8175007918102846E-1
853 858 7.337706735256105E-2
853 862 -4.989832283512479
853 863 1.5538481735871673E-1
853 864 -1.4276069941747824
853 865 -2.1999114462827234
853 866 -1.9423102169819406E-1
853 867 1.784508742716623
853 877 3.272052893089363E-1
853 878 9.056393914713716E-1
853 879 -5.850557762299889E-1
853 880 -2.1317205419071934
853 881 -9.775214185849566E-1
853 882 6.314925760931203E-1
854 591 -1.2153926943292898E-1
854 592 5.326052252988551E-1
854 593 -4.4505526563825093E-1
854 853 2.640175800657375E-1
854 854 1.064878827368383E1
854 855 -4.300670743726661
854 856 3.0749920820249965E-2
854 857 2.754578616700439E-1
854 858 -3.992658667344112E-1
854 862 4.0538481735999854E-1
854 863 -5.523110720072976
854 864 2.5741741410346166
854 865 -5.067310216994717E-1
854 866 -1.5333134005827938
854 867 6.513299427474095E-1
854 877 9.056393914713716E-1
854 878 -5.787196506654362E-1
854 879 2.4871847474632325E-1
854 880 -9.77521418584957E-1
854 881 -3.8217075893315253
854 882 1.6707693175709735
855 591 2.719251417946965E-1
855 592 -4.47801877217934E-1
855 593 1.29856725595569
855 853 -2.047904740616518E-1
855 854 -4.300670743726661
855 855 1.7670137709314563E1
855 856 -5.136394710422867E-1
855 857 -5.533532185770084E-1
855 858 8.410187350023199E-1
855 862 -1.4276069941747815
855 863 1.681316998194664
855 864 -1.2712210049075079E1
855 865 1.7845087427166226
855 866 -1.671224382224779E-1
855 867 -5.202741940339764
855 877 -1.1289060597205676
855 878 1.1443222291659592
855 879 1.464343559008857
855 880 1.2185091144879687
855 881 2.6433090503834573
855 882 -3.3591152698665883
856 799 -6.349108895200006E-1
856 800 -1.951200190009153E-1
856 801 -9.185082689633148E-2
856 820 -1.4629217416315612
856 821 1.3343936589903571
856 822 -3.6320450411601657E-1
856 853 -8.697151769168314E-1
856 854 3.0749920820249965E-2
856 855 -5.136394710422867E-1
856 856 8.721207544511108
856 857 -2.860800795609554E-1
856 858 4.331878202253441E-1
856 859 -3.2017256558976777
856 860 2.4385001583667004E-1
856 861 -1.540918413296147
856 862 -1.4395396912673644
856 863 -2.926200190034952E-1
856 864 1.8491020959521602
856 877 -1.1123943892776735
856 878 -8.351734780819112E-1
856 879 2.2732329917327795E-1
857 799 1.7987998099996658E-1
857 800 5.1505698891497E-1
857 801 -3.7303174855332777E-1
857 820 1.3343936589903567
857 821 -2.2932971250319296
857 822 2.8365325960720983E-1
857 853 -2.8175007918102846E-1
857 854 2.754578616700439E-1
857 855 -5.533532185770084E-1
857 856 -2.860800795609554E-1
857 857 9.67724558476666
857 858 -3.893777645658289
857 859 5.563500158379483E-1
857 860 -3.7092061549285575
857 861 2.5066070108677327
857 862 -6.67620019004377E-1
857 863 -8.305630924313667E-1
857 864 8.015953964807E-1
857 877 -8.351734780819107E-1
857 878 -3.63469406295982
857 879 1.2283069458329832
858 799 -4.5925413457824543E-1
858 800 -5.258730284355441E-1
858 801 3.87520029589978E-1
858 820 -9.502210425108636E-1
858 821 1.0968278125126123
858 822 -2.8890050218691177E-1
858 853 7.337706735256105E-2
858 854 -3.992658667344112E-1
858 855 8.410187350023199E-1
858 856 4.331878202253441E-1
858 857 -3.893777645658289
858 858 1.2445795612533905E1
858 859 -1.5409184132961462
858 860 1.5393451061197336
858 861 -8.328929583893231
858 862 1.8491020959521598
858 863 5.754777741790612E-2
858 864 -3.2093106951902417
858 877 5.947266068551907E-1
858 878 2.125195844777993
858 879 -1.8471935958558179
859 753 6.264049561711371E-2
859 754 5.999841127947955E-1
859 755 -5.646915411019652E-1
859 790 -2.5456242497621564
859 791 -4.4358360180419343E-1
859 792 -1.706814155794142
859 799 -2.471173796903807E-3
859 800 -7.67106670361289E-1
859 801 1.1251726297780238
859 805 -4.106454303829136
859 806 1.0539371214304427
859 807 1.9064554243977497E-1
859 820 -4.0649713484524375
859 821 1.9690170499430488
859 822 2.6760659220464604
859 850 -1.8742726325078056E1
859 851 -1.1595107968174752
859 852 6.075529002426114
859 856 -3.2017256558976777
859 857 5.563500158379483E-1
859 858 -1.5409184132961462
859 859 3.389209422350329E1
859 860 -5.924854287603869E-1
859 861 -4.985441681641298
859 862 -9.77055632865337E-1
859 863 6.803498575301143E-1
859 864 -2.2013120190908414E-1
859 877 -3.1370602943870163E-1
859 878 -1.8969516597930058
859 879 -1.049416102947738
860 753 5.999841127947967E-1
860 754 -2.7814556723197517
860 755 2.205186828538949
860 790 -3.8108360180463585E-1
860 791 -2.726804825000611
860 792 -3.972405738768845E-1
860 799 -3.296066703608465E-1
860 800 1.0951353495873917
860 801 -2.2946822317692878E-1
860 805 1.5539371214304434
860 806 -1.3036329417248773
860 807 4.8656876645411073E-1
860 820 1.9690170499430484
860 821 -4.642007287553508
860 822 -2.8961759834524807
860 850 -1.347010796816198
860 851 -1.593396668077828E1
860 852 2.407084250973909
860 856 2.4385001583667004E-1
860 857 -3.7092061549285575
860 858 1.5393451061197336
860 859 -5.924854287603869E-1
860 860 2.943936272353539E1
860 861 -1.4510225200898472
860 862 1.803498575301135E-1
860 863 1.5476058375167447
860 864 -1.0343452569967329
860 877 -1.8969516597930054
860 878 -9.850303483339415E-1
860 879 -6.29932394493829E-1
861 753 -5.646915411019651E-1
861 754 2.2051868285389498
861 755 -7.910032203209064E-1
861 790 -1.7068141557941439
861 791 -1.0668834310299316
861 792 -7.104559693295775
861 799 1.1251726297780236
861 800 4.401746339761189E-1
861 801 -4.9619123779642826E-1
861 805 1.9064554243977588E-1
861 806 4.865687664541102E-1
861 807 1.0164176582536066
861 820 2.676065922046459
861 821 -2.8961759834524803
861 822 -5.0562553591004145
861 850 6.075529002426112
861 851 1.4398223462259074
861 852 -2.8711518098517203E1
861 856 -1.540918413296147
861 857 2.5066070108677327
861 858 -8.328929583893231
861 859 -4.985441681641298
861 860 -1.4510225200898472
861 861 4.5698208176351926E1
861 862 -2.2013120190908275E-1
861 863 -1.0343452569967335
861 864 2.5215629360691625
861 877 -1.0494161029477365
861 878 -6.299323944938269E-1
861 879 1.2522684222492608
862 847 -1.1425841098025113E1
862 848 7.197589397022641E-1
862 849 4.171111806806833
862 850 -7.906767850901429
862 851 1.1191626581481227
862 852 -2.966765901569657
862 853 -4.989832283512479
862 854 4.0538481735999854E-1
862 855 -1.4276069941747815
862 856 -1.4395396912673644
862 857 -6.67620019004377E-1
862 858 1.8491020959521598
862 859 -9.77055632865337E-1
862 860 1.803498575301135E-1
862 861 -2.2013120190908275E-1
862 862 3.0967269772135428E1
862 863 -2.8341693566863775
862 864 -1.1269457539410328
862 865 -1.202959533406914
862 866 1.1015366438307115
862 867 -2.0394385631295497E-1
862 877 -3.332277616615002
862 878 2.3326148130612916
862 879 1.5686269198590614
862 880 -8.178562077935196E-1
862 881 -1.7110785268123712
862 882 -1.443788989482089
862 883 1.124860142251735
862 884 -6.459398271293768E-1
862 885 -1.9965812522845663E-1
863 847 4.697589397035464E-1
863 848 -8.725243107331522
863 849 -4.2177884753095285E-1
863 850 1.2441626581472407
863 851 -7.0251075333102415
863 852 2.20043571812801
863 853 1.5538481735871673E-1
863 854 -5.523110720072976
863 855 1.681316998194664
863 856 -2.926200190034952E-1
863 857 -8.305630924313667E-1
863 858 5.754777741790612E-2
863 859 6.803498575301143E-1
863 860 1.5476058375167447
863 861 -1.0343452569967335
863 862 -2.8341693566863775
863 863 2.6486673239448145E1
863 864 -1.173293799599682
863 865 6.015366438307124E-1
863 866 6.894234684753444E-1
863 867 -7.80220020676882E-1
863 877 2.3326148130612907
863 878 -5.195564645295286
863 879 -2.4484518620295814
863 880 -1.7110785268123716
863 881 5.552319071209888E-1
863 882 -9.906366192517954E-1
863 883 -6.459398271293779E-1
863 884 -1.979345354119824
863 885 2.909425912345046
864 847 4.171111806806834
864 848 -1.314635990370905
864 849 -1.55294136938216E1
864 850 -2.966765901569656
864 851 1.4563880990652154
864 852 -1.061621920421563E1
864 853 -1.4276069941747824
864 854 2.5741741410346166
864 855 -1.2712210049075079E1
864 856 1.8491020959521602
864 857 8.015953964807E-1
864 858 -3.2093106951902417
864 859 -2.2013120190908414E-1
864 860 -1.0343452569967329
864 861 2.5215629360691625
864 862 -1.1269457539410328
864 863 -1.173293799599682
864 864 3.989825218651421E1
864 865 -2.0394385631295445E-1
864 866 -7.802200206768821E-1
864 867 2.0383881562297805
864 877 1.568626919859061
864 878 -2.4484518620295814
864 879 -3.224665033331791
864 880 -1.4437889894820903
864 881 -9.906366192517955E-1
864 882 2.291736252954072
864 883 -1.9965812522845489E-1
864 884 2.909425912345046
864 885 -1.4581208561328847
865 587 -8.71914564558789
865 591 -1.9054844478973822
865 592 4.67884817361474E-1
865 593 -1.427606994177989
865 594 -1.192858916937779
865 595 -3.984633561728606E-1
865 596 -2.039438563051686E-1
865 686 3.1693230895305176
865 847 -1.595388535073422E1
865 848 -7.127893209166661E-1
865 849 2.0311544987259986
865 853 -2.1999114462827234
865 854 -5.067310216994717E-1
865 855 1.7845087427166226
865 862 -1.202959533406914
865 863 6.015366438307124E-1
865 864 -2.0394385631295445E-1
865 865 3.5876389029680944E1
865 866 2.5130986642620643
865 867 -5.616270226621465
865 880 -1.150272221769337E1
865 881 -1.0536264690079131
865 882 2.3425488469861686
865 883 6.800578528859333
865 884 8.436798156714349E-1
865 885 -1.875770244541732
865 956 -1.7545897733287723
866 587 -2.067089773327491
866 591 2.803848173601946E-1
866 592 -1.7214514806100203
866 593 4.441223627626367E-2
866 594 -8.984633561728602E-1
866 595 7.146750097158141E-1
866 596 -7.802200206470875E-1
866 686 2.232904741072366
866 847 -5.252893209179441E-1
866 848 -1.0640561369275789E1
866 849 1.1358319457083723
866 853 -1.9423102169819406E-1
866 854 -1.5333134005827938
866 855 -1.671224382224779E-1
866 862 1.1015366438307115
866 863 6.894234684753444E-1
866 864 -7.802200206768821E-1
866 865 2.5130986642620643
866 866 2.8051219588347877E1
866 867 -1.3910611142119582
866 880 -1.053626469007913
866 881 -1.1010796493954956E1
866 882 -1.478088256281554
866 883 8.43679815671434E-1
866 884 2.791524604312282
866 885 1.1835629269829568
866 956 -7.34071992642776
867 587 3.169323089530518
867 591 -1.4276069941779896
867 592 8.628646172101518E-1
867 593 -5.718651863886933
867 594 -2.0394385630516854E-1
867 595 -7.802200206470868E-1
867 596 2.0484887726347893
867 686 -9.987573303930406
867 847 2.0311544987259995
867 848 3.1737956473848583E-1
867 849 -1.5435146650348777E1
867 853 1.784508742716623
867 854 6.513299427474095E-1
867 855 -5.202741940339764
867 862 -2.0394385631295497E-1
867 863 -7.80220020676882E-1
867 864 2.0383881562297805
867 865 -5.616270226621465
867 866 -1.3910611142119582
867 867 3.6374766318471245E1
867 880 2.3425488469861673
867 881 -1.4780882562815552
867 882 -8.568810266760764
867 883 -1.8757702445417315
867 884 1.1835629269829566
867 885 4.45128077793083
867 956 1.4144523601384775
868 50 2.4210325098285135E-2
868 51 1.12319695231212
868 52 1.5632515569019398E-1
868 53 9.163310054906468E-1
868 83 -3.6301554126514035
868 111 1.002828191226309
868 365 -4.7007423245944047E-1
868 426 -4.485886207349833E-1
868 427 -2.6346679055170767
868 603 -4.032618313563621
868 604 4.5964007424579745E-1
868 605 8.969874863090141E-1
868 625 -3.6409723193774126
868 626 -1.252984594216206E-1
868 627 -3.920933003816743
868 702 -3.5950398260318464
868 703 -5.938716657042309E-1
868 759 -5.488578038843614
868 760 3.3231901239834887
868 868 2.5792605705739724E1
868 869 5.083209218105417E-2
868 870 -4.9559792725261245
868 871 -2.4018939675703246
868 872 4.751427857369064E-1
868 873 -2.934767568330694
868 874 2.4663506666243786
868 875 -7.776690445437412E-2
868 883 2.4612947204867117
868 884 -8.573186495712846E-1
868 885 6.595888754501691E-1
869 50 1.1231969523121197
869 51 -3.14397838878208
869 52 5.664048944788428E-1
869 53 -3.3939143815577832E-3
869 83 -2.6346679055170785
869 111 -5.12417019851981
869 365 -8.595437518727908E-1
869 426 9.734594138363657E-1
869 427 -5.992583354503465
869 603 4.5964007424579884E-1
869 604 -3.994960241829548E-2
869 605 -1.772643860591287E-1
869 625 -1.2529845942162113E-1
869 626 -4.601182813831921E-1
869 627 -1.2792284986167338E-1
869 702 9.163310054906474E-1
869 703 -1.3315301335893448E-1
869 759 1.00282819122631
869 760 -3.051130160361203
869 868 5.083209218105417E-2
869 869 2.5490569367263383E1
869 870 -2.401893967570324
869 871 -3.7517949157773027
869 872 -5.166804976654571E-2
869 873 2.4663506666243786
869 874 -5.9026789710417695
869 875 -2.5599735276135005E-1
869 883 -8.57318649571285E-1
869 884 -1.0719017404559064
869 885 3.1168152557264177
870 53 2.3326813358992773
870 111 -9.952192001719293E-1
870 426 1.1823264386574444
870 702 -3.395040680142345
870 703 -5.126497727497663E-1
870 704 -2.757888776290942
870 705 1.3236155922428945
870 706 -1.0656406206386855
870 741 -5.875453013390064
870 742 -1.344596375866411
870 743 -1.6594663793802733
870 753 -5.163642778278064
870 754 9.41684336859475E-1
870 755 4.900811435326624
870 759 4.472966736216694
870 760 -4.854294276904366E-3
870 826 -1.1081652618650628
870 827 -8.358488240312358E-1
870 828 -5.950467320402671E-1
870 829 3.236549569336764E-1
870 830 9.040599946376059E-1
870 831 1.1283005867285687
870 832 1.7733860179852268
870 833 -1.0445731881354231E-1
870 834 3.539329399022926E-1
870 841 -3.337201649128705
870 842 2.3312693328693155
870 843 -1.5672451355876307
870 844 -3.0354482611737676E-1
870 845 -1.8959034933730994
870 846 1.047573189922826
870 868 -4.9559792725261245
870 869 -2.401893967570324
870 870 3.242164131258116E1
870 871 -1.102897791475932
870 872 1.9316342464406657
870 873 -5.352809348912775
870 874 7.546902969575567E-1
870 875 -1.0684827570312327E-1
870 883 -6.741923417065293
870 884 9.281608183634944E-2
870 885 -5.032827626601771
871 53 -6.700086459349162
871 111 7.781311573807582E-1
871 426 7.879177768249503E-1
871 702 2.332681335899277
871 703 1.1880235678291515
871 704 1.3236155922428945
871 705 -1.0493031196067426E-1
871 706 7.13617088956461E-1
871 741 -1.3445963758664095
871 742 -2.1393793094335067
871 743 -4.1931979428188015E-1
871 753 9.416843368594738E-1
871 754 -2.2276042802559335
871 755 -1.4224601028830577
871 759 -9.95219200171928E-1
871 760 -3.158092791845003
871 826 -8.358488240312365E-1
871 827 -3.623422016773647
871 828 -2.124525644705149
871 829 9.040599946376073E-1
871 830 -5.935902337633513E-1
871 831 -1.1524621333025828
871 832 -1.0445731881354278E-1
871 833 5.881822033843875E-1
871 834 2.585023683143283
871 841 2.3312693328693155
871 842 -5.2132406938795866
871 843 2.462065665853423
871 844 -1.8959034933731003
871 845 -9.686292037147239E-1
871 846 6.269911699773693E-1
871 868 -2.4018939675703246
871 869 -3.7517949157773027
871 870 -1.102897791475932
871 871 2.8464960722982422E1
871 872 -7.847287746263355E-1
871 873 7.546902969575551E-1
871 874 -8.99058691302012E-1
871 875 1.1951610108971521E-1
871 883 9.281608183635022E-2
871 884 -3.6095379675376664
871 885 5.784341879696546E-1
872 53 1.698594858231811E-1
872 111 -3.1580927918450037
872 426 -2.126359258063314
872 702 -2.4672663145097962E-1
872 703 -2.6717209867505787
872 704 -1.831744906899142E-1
872 705 3.529115729184302E-1
872 706 -4.765435157730519E-2
872 741 -8.261330460371255E-1
872 742 -6.2176937157292556E-2
872 743 -2.082917491210185
872 753 4.900811435326625
872 754 -1.4224601028830575
872 755 -6.920130737245256
872 759 -4.854294276902687E-3
872 760 1.600100781259478
872 826 -2.2751286197431575E-1
872 827 -1.2281058429783063
872 828 -1.8429946316605073
872 829 5.85484239634387E-1
872 830 -2.533524971641013E-1
872 831 1.457574860006061
872 832 3.53932939902292E-1
872 833 2.5850236831432833
872 834 -2.219676445174379
872 841 -1.5672451355876322
872 842 2.462065665853424
872 843 -3.2366625448371664
872 844 1.0475731899228262
872 845 6.269911699773689E-1
872 846 1.2649599631760267
872 868 4.751427857369064E-1
872 869 -5.166804976654571E-2
872 870 1.9316342464406657
872 871 -7.847287746263355E-1
872 872 2.970200898904416E1
872 873 -1.2061047503450617
872 874 1.8529923073530005E-1
872 875 -1.0868509876713033
872 883 -5.032827626601771
872 884 5.784341879696553E-1
872 885 -1.1789677159295731E1
873 426 -5.178618305427103E-1
873 576 -2.152224475390801
873 577 5.49447874068889E-1
873 578 -1.590428894380268E-1
873 582 2.1840503578947854
873 583 1.5058958832819669
873 600 -9.639414273428647
873 601 -8.608533997688461E-1
873 602 -5.093982571277976E-1
873 603 -1.4176982432119318
873 604 -1.8863007501052345
873 605 1.290704648512031
873 625 -4.5106120235668945E-1
873 626 -1.1237905869153897
873 627 -2.845268327186594
873 634 1.0112726813010628
873 640 -2.719449529410946
873 646 4.3233623289006526E-2
873 829 -2.1323307767401465
873 830 -9.787626193253087E-1
873 831 -1.2215322480842814
873 835 7.82249588064238
873 836 7.252960953697679E-2
873 837 2.314702752837338
873 838 -1.1580553356762227E1
873 839 -1.0460066518372146
873 840 -2.3868284588542714
873 841 -8.036262689543006E-1
873 842 -1.7099045528012196
873 843 1.4408647513239627
873 868 -2.934767568330694
873 869 2.4663506666243786
873 870 -5.352809348912775
873 871 7.546902969575551E-1
873 872 -1.2061047503450617
873 873 3.484590150999209E1
873 874 9.510265921434341E-2
873 875 1.8804961094912924
873 883 -8.22891934500301
873 884 6.121323568233231E-1
873 885 3.42516883479697
873 892 1.54946921424578
874 426 7.478912825753614E-1
874 576 5.494478740688883E-1
874 577 -3.6363625159286923
874 578 1.5494692142457818
874 582 1.5058958832819664
874 583 2.2529332142989253
874 600 -8.608533997688438E-1
874 601 -3.31503195675956
874 602 -5.959770982854178E-1
874 603 -1.886300750105236
874 604 -2.859580237782724
874 605 1.238524931530243
874 625 -1.1237905869153904
874 626 -1.9852379313973427
874 627 -3.2044302901604773
874 634 -2.4577984781337157
874 640 1.9690930005855969
874 646 1.0756399167099784
874 829 -9.787626193253095E-1
874 830 -3.8121917034118717
874 831 -2.6395046501530843
874 835 7.252960953697743E-2
874 836 4.255724723336104
874 837 1.540577597278026
874 838 -1.0460066518372164
874 839 -1.1060641558321219E1
874 840 1.4773314075051849
874 841 -1.709904552801219
874 842 5.822535838905277E-1
874 843 9.821122446071298E-1
874 868 2.4663506666243786
874 869 -5.9026789710417695
874 870 7.546902969575567E-1
874 871 -8.99058691302012E-1
874 872 1.8529923073530005E-1
874 873 9.510265921434341E-2
874 874 3.1184628598305956E1
874 875 9.948036777986409E-1
874 883 6.121323568233218E-1
874 884 -4.515775185816285
874 885 -1.3135627725927657
874 892 -2.889813680700378E-1
875 426 -1.831545106252259
875 576 4.924909971442103E-1
875 577 -1.5559515450867143
875 578 -2.719449529410947
875 582 4.3233623289006456E-2
875 583 1.0756399167099788
875 600 -1.537162533531176
875 601 -5.622827097231983E-1
875 602 -4.329038897211712
875 603 7.102298580269498E-1
875 604 4.024611281288278E-1
875 605 -7.237280691735193E-1
875 625 -2.8452683271865955
875 626 -3.2044302901604778
875 627 -3.949355733793619
875 634 -3.9958019448388575
875 640 -5.481603557186981
875 646 5.118871211632347
875 829 -6.338628977692451E-1
875 830 -1.6693104033785955
875 831 -3.359946666193465
875 835 2.314702752837337
875 836 1.540577597278026
875 837 4.681080628785972
875 838 -2.3868284588542696
875 839 1.4773314075051882
875 840 -8.658922168276828
875 841 1.4408647513239647
875 842 9.821122446071322E-1
875 843 2.31464304101405
875 868 -7.776690445437412E-2
875 869 -2.5599735276135005E-1
875 870 -1.0684827570312327E-1
875 871 1.1951610108971521E-1
875 872 -1.0868509876713033
875 873 1.8804961094912924
875 874 9.948036777986409E-1
875 875 3.285242795543482E1
875 883 3.4251688347969695
875 884 -1.3135627725927663
875 885 -1.1550229706268652E1
875 892 1.969093000585593
876 70 1.1787641523737307
876 71 -3.327140992555871
876 72 -5.618921783111086E-1
876 73 -8.065797464918056E-2
876 85 -2.6935932035669072
876 86 -6.043959537906521
876 87 8.637259746225237E-1
876 111 -4.836845288165145
876 610 4.5926811646388055E-1
876 611 -6.757241490009486E-2
876 612 1.756723741864854E-1
876 625 -9.91148521670785E-2
876 626 -4.2488450836588054E-1
876 627 8.589934834341653E-2
876 730 9.611328652764539E-1
876 731 1.3132066520929975E-1
876 745 8.637742994625819E-2
876 746 -8.82853376789795E-1
876 759 9.196453742756568E-1
876 760 3.0044946220652573
876 876 2.5639745797675776E1
876 877 -2.4500565396352347
876 878 -3.7803030036918948
876 879 5.873787653714124E-2
876 880 2.476664893706425
876 881 -5.902573743580654
876 882 2.765165039377886E-1
876 883 -8.390882366731862E-1
876 884 -1.175808333860534
876 885 -3.15162180980101
877 73 2.384750600675479
877 111 -1.0125987198339113
877 730 -3.4527114426353247
877 731 5.323057330870075E-1
877 732 -2.7719232369263587
877 733 1.3287468457917118
877 734 1.0636391527445592
877 745 -4.9931681421819905
877 746 -1.2018382130706442
877 753 -5.3082912441558525
877 754 9.279570734412493E-1
877 755 -4.912546103852464
877 759 4.6194650949732425
877 760 3.1134003621935136E-3
877 820 -5.896539760324629
877 821 -1.349371115103117
877 822 1.656462253735316
877 850 1.7714905149170148
877 851 -1.0171639056230894E-1
877 852 -3.4896601494612983E-1
877 853 3.272052893089363E-1
877 854 9.056393914713716E-1
877 855 -1.1289060597205676
877 856 -1.1123943892776735
877 857 -8.351734780819107E-1
877 858 5.947266068551907E-1
877 859 -3.1370602943870163E-1
877 860 -1.8969516597930054
877 861 -1.0494161029477365
877 862 -3.332277616615002
877 863 2.3326148130612907
877 864 1.568626919859061
877 876 -2.4500565396352347
877 877 3.274768300644618E1
877 878 -1.1442153841897431
877 879 -1.9129974159482357
877 880 -5.375745440411949
877 881 7.481844610456194E-1
877 882 9.257925367955588E-2
877 883 -6.909086603677894
877 884 1.6219010171250972E-1
877 885 5.043216590162896
878 73 -6.844566642934945
878 111 9.903284599322464E-1
878 730 2.3847506006754786
878 731 -1.1771937392115839
878 732 1.3287468457917095
878 733 -1.1902815503363165E-1
878 734 -7.12028746033628E-1
878 745 -2.4500565396352343
878 746 -7.773420683504666E-1
878 753 9.279570734412476E-1
878 754 -2.3046508918860065
878 755 1.3766674379649277
878 759 -1.0125987198339093
878 760 3.15346159476462
878 820 -1.3493711151031154
878 821 -2.147753633429602
878 822 4.1968733973292616E-1
878 850 -1.0171639056230836E-1
878 851 5.861036892938338E-1
878 852 -2.5869749372644333
878 853 9.056393914713716E-1
878 854 -5.787196506654362E-1
878 855 1.1443222291659592
878 856 -8.351734780819112E-1
878 857 -3.63469406295982
878 858 2.125195844777993
878 859 -1.8969516597930058
878 860 -9.850303483339415E-1
878 861 -6.299323944938269E-1
878 862 2.3326148130612916
878 863 -5.195564645295286
878 864 -2.4484518620295814
878 876 -3.7803030036918948
878 877 -1.1442153841897431
878 878 2.8689708842208475E1
878 879 8.860902089846778E-1
878 880 7.481844610456199E-1
878 881 -9.115741417947479E-1
878 882 -1.1314985398897265E-1
878 883 1.621901017125092E-1
878 884 -3.7642558154092436
878 885 -6.603510540186115E-1
879 73 -1.612919776344539E-1
879 111 3.1534615947646225
879 730 2.6488538305828596E-1
879 731 -2.7274625035429727
879 732 1.8104246041175093E-1
879 733 -3.508541327960077E-1
879 734 -5.660654122603684E-2
879 745 -4.956884965465001E-1
879 746 -2.1391828951579717
879 753 -4.912546103852466
879 754 1.3766674379649295
879 755 -7.002185776114352
879 759 3.1134003621924866E-3
879 760 1.6984399687329894
879 820 8.231289203921694E-1
879 821 6.254448259337614E-2
879 822 -2.090044883263801
879 850 -3.489660149461287E-1
879 851 -2.586974937264431
879 852 -2.22712405338583
879 853 -5.850557762299889E-1
879 854 2.4871847474632325E-1
879 855 1.464343559008857
879 856 2.2732329917327795E-1
879 857 1.2283069458329832
879 858 -1.8471935958558179
879 859 -1.049416102947738
879 860 -6.29932394493829E-1
879 861 1.2522684222492608
879 862 1.5686269198590614
879 863 -2.4484518620295814
879 864 -3.224665033331791
879 876 5.873787653714124E-2
879 877 -1.9129974159482357
879 878 8.860902089846778E-1
879 879 2.982846735438051E1
879 880 1.1933329370514236
879 881 -1.7667066318713848E-1
879 882 -1.0982154220698348
879 883 5.043216590162897
879 884 -6.603510540186132E-1
879 885 -1.1830838600423203E1
880 587 -1.183051118969865E-1
880 591 -2.1407417807122626
880 592 5.490885839125204E-1
880 593 -1.0098778938649828
880 594 2.2090522373652863
880 595 1.506984943037097
880 596 -4.543370110866253E-2
880 607 -9.732495522451654
880 608 -8.763318392347309E-1
880 609 4.791593360036132E-1
880 610 -1.4112153472558688
880 611 -1.8908325504411865
880 612 -1.2866043096819715
880 625 -4.2012542181899437E-1
880 626 -1.1216799120343546
880 627 2.852511158415469
880 686 2.7208982337323477
880 745 -2.94307715304822
880 746 5.132487987310321E-1
880 847 7.760460541386484
880 848 7.630205300652673E-2
880 849 -2.2759975112667963
880 853 -2.1317205419071934
880 854 -9.77521418584957E-1
880 855 1.2185091144879687
880 862 -8.178562077935196E-1
880 863 -1.7110785268123716
880 864 -1.4437889894820903
880 865 -1.150272221769337E1
880 866 -1.053626469007913
880 867 2.3425488469861673
880 876 2.476664893706425
880 877 -5.375745440411949
880 878 7.481844610456199E-1
880 879 1.1933329370514236
880 880 3.48934991437029E1
880 881 1.0976338610300587E-1
880 882 -1.8045899274862027
880 883 -8.269007177464648
880 884 6.076497946036888E-1
880 885 -3.4539160925173142
880 956 1.5564326007006304
881 587 1.5564326007006297
881 591 5.490885839125205E-1
881 592 -3.6131943420422084
881 593 2.444510491442232
881 594 1.5069849430370956
881 595 2.3033572589162765
881 596 -1.076417816374987
881 607 -8.76331839234731E-1
881 608 -3.379316345836315
881 609 5.906098280730422E-1
881 610 -1.8908325504411838
881 611 -2.8386029844191607
881 612 -1.2324424578956694
881 625 -1.121679912034355
881 626 -1.9533767749630162
881 627 3.185925317307576
881 686 -1.9454684371937674
881 745 2.476664893706424
881 746 -7.257513412556706E-1
881 847 7.630205300652647E-2
881 848 4.217056320582679
881 849 -1.5430981398345631
881 853 -9.775214185849566E-1
881 854 -3.8217075893315253
881 855 2.6433090503834573
881 862 -1.7110785268123712
881 863 5.552319071209888E-1
881 864 -9.906366192517955E-1
881 865 -1.0536264690079131
881 866 -1.1010796493954956E1
881 867 -1.4780882562815552
881 876 -5.902573743580654
881 877 7.481844610456194E-1
881 878 -9.115741417947479E-1
881 879 -1.7667066318713848E-1
881 880 1.0976338610300587E-1
881 881 3.116746983228744E1
881 882 -1.005549679530124
881 883 6.076497946036901E-1
881 884 -4.549197543932223
881 885 1.3097687235989628
881 956 -2.627753590525797E-1
882 587 2.7208982337323464
882 591 -4.9114367162762235E-1
882 592 1.5490936884983015
882 593 -3.983694171764423
882 594 -4.5433701108660324E-2
882 595 -1.0764178163749878
882 596 5.142093254856363
882 607 1.5097997765707512
882 608 5.608817156920674E-1
882 609 -4.374401052651218
882 610 -7.045848485474634E-1
882 611 -4.005464641499049E-1
882 612 -7.200737825939718E-1
882 625 2.8525111584154708
882 626 3.1859253173075786
882 627 -3.896521809682954
882 686 -5.409931453720271
882 745 6.962489655874035E-2
882 746 -1.8268588833935258
882 847 -2.2759975112667963
882 848 -1.5430981398345638
882 849 4.609166907650334
882 853 6.314925760931203E-1
882 854 1.6707693175709735
882 855 -3.3591152698665883
882 862 -1.443788989482089
882 863 -9.906366192517954E-1
882 864 2.291736252954072
882 865 2.3425488469861686
882 866 -1.478088256281554
882 867 -8.568810266760764
882 876 2.765165039377886E-1
882 877 9.257925367955588E-2
882 878 -1.1314985398897265E-1
882 879 -1.0982154220698348
882 880 -1.8045899274862027
882 881 -1.005549679530124
882 882 3.280709500816715E1
882 883 -3.4539160925173187
882 884 1.3097687235989626
882 885 -1.1612469311124372E1
882 956 -1.9454684371937694
883 111 4.760447543955837
883 426 6.595888754501692E-1
883 578 -3.4494287892115416
883 587 -3.1760795476054504
883 625 -1.6132881937088097E1
883 626 -6.06212488818902
883 627 -1.9505102440833977E-2
883 640 1.6708761481849512
883 686 -1.6846614218435383
883 745 2.506924498237686
883 746 -6.079721295642617E-1
883 753 -6.9569594250878275
883 754 1.7254467955563086
883 755 -1.149528835090587E-2
883 759 -7.73299368511082
883 760 -2.2342110538898258E-2
883 832 -7.183402560514046E-1
883 833 -1.9404019897040385
883 834 -1.3122106865641752
883 835 -8.223769173820047
883 836 -5.796687458659855E-2
883 837 -1.8499490764605029
883 838 6.845271670498138
883 839 8.359859758086858E-1
883 840 1.9075931446120244
883 841 1.1197057309013747
883 842 -6.50560744645857E-1
883 843 2.0450524961040165E-1
883 847 -8.186003385841168
883 848 -6.109803038310685E-2
883 849 1.8224799938656329
883 850 -1.0065993506086766
883 851 -1.9417239410818556
883 852 1.3087066858412748
883 862 1.124860142251735
883 863 -6.459398271293779E-1
883 864 -1.9965812522845489E-1
883 865 6.800578528859333
883 866 8.43679815671434E-1
883 867 -1.8757702445417315
883 868 2.4612947204867117
883 869 -8.57318649571285E-1
883 870 -6.741923417065293
883 871 9.281608183635022E-2
883 872 -5.032827626601771
883 873 -8.22891934500301
883 874 6.121323568233218E-1
883 875 3.4251688347969695
883 876 -8.390882366731862E-1
883 877 -6.909086603677894
883 878 1.621901017125092E-1
883 879 5.043216590162897
883 880 -8.269007177464648
883 881 6.076497946036901E-1
883 882 -3.4539160925173187
883 883 6.487335680240088E1
883 884 4.1711106549503946E-1
883 885 2.8172382128070453E-2
883 892 1.5026341052427659
883 956 1.496129545258382
884 111 -1.4218454066484401E1
884 426 3.116815255726417
884 578 1.502634105242768
884 587 1.4961295452583796
884 625 -6.062124888189019
884 626 -9.011160552936232
884 627 -6.116783515721008E-3
884 640 -3.205670145301837E-1
884 686 3.2533924888123655E-1
884 745 -8.39088236673186E-1
884 746 -3.1516218098010103
884 753 1.7254467955563109
884 754 4.920584408562214E-1
884 755 3.513982394817232E-2
884 759 4.760447543955835
884 760 2.1270998631941332E-2
884 832 -1.9404019897040392
884 833 -6.245507805071615E-1
884 834 -1.347707441247801
884 835 -5.796687458659877E-2
884 836 -8.330995971855131
884 837 -1.2312553306495797
884 838 8.35985975808683E-1
884 839 2.8145996754162974
884 840 -1.180707920094819
884 841 -6.505607446458568E-1
884 842 -1.9798081656878537
884 843 -2.9152378281591167
884 847 -6.109803038310585E-2
884 848 -8.306511240683593
884 849 1.2356188767774556
884 850 -1.9417239410818565
884 851 -1.3549241662018092
884 852 1.3424949395134629
884 862 -6.459398271293768E-1
884 863 -1.979345354119824
884 864 2.909425912345046
884 865 8.436798156714349E-1
884 866 2.791524604312282
884 867 1.1835629269829566
884 868 -8.573186495712846E-1
884 869 -1.0719017404559064
884 870 9.281608183634944E-2
884 871 -3.6095379675376664
884 872 5.784341879696553E-1
884 873 6.121323568233231E-1
884 874 -4.515775185816285
884 875 -1.3135627725927663
884 876 -1.175808333860534
884 877 1.6219010171250972E-1
884 878 -3.7642558154092436
884 879 -6.603510540186132E-1
884 880 6.076497946036888E-1
884 881 -4.549197543932223
884 882 1.3097687235989626
884 883 4.1711106549503946E-1
884 884 5.9191662849284526E1
884 885 6.925706023430514E-2
884 892 -7.612627892470546E-1
884 956 -3.635589513442114E-2
885 111 2.1270998631941235E-2
885 426 -2.4427081831528703
885 578 1.6708761481849508
885 587 -1.6846614218435372
885 625 -1.9505102440835587E-2
885 626 -6.116783515721647E-3
885 627 -4.86111503897725
885 640 1.155469412330053E-1
885 686 3.9852211228164325E-1
885 745 -6.079721295642622E-1
885 746 -2.427359039003696
885 753 -1.1495288350905077E-2
885 754 3.5139823948172035E-2
885 755 1.7030296140790733
885 759 -2.234211053889723E-2
885 760 -5.281295494402223
885 832 -1.3122106865641785
885 833 -1.3477074412478007
885 834 8.915953939638248E-1
885 835 -1.8499490764605033
885 836 -1.2312553306495806
885 837 -5.713097668881858
885 838 1.9075931446120227
885 839 -1.1807079200948187
885 840 4.510255257582261
885 841 2.0450524961040356E-1
885 842 -2.915237828159117
885 843 -1.4594592239306228
885 847 1.822479993865633
885 848 1.2356188767774547
885 849 -5.662639641438968
885 850 1.308706685841276
885 851 1.3424949395134629
885 852 6.055238565536752E-1
885 862 -1.9965812522845663E-1
885 863 2.909425912345046
885 864 -1.4581208561328847
885 865 -1.875770244541732
885 866 1.1835629269829568
885 867 4.45128077793083
885 868 6.595888754501691E-1
885 869 3.1168152557264177
885 870 -5.032827626601771
885 871 5.784341879696546E-1
885 872 -1.1789677159295731E1
885 873 3.42516883479697
885 874 -1.3135627725927657
885 875 -1.1550229706268652E1
885 876 -3.15162180980101
885 877 5.043216590162896
885 878 -6.603510540186115E-1
885 879 -1.1830838600423203E1
885 880 -3.4539160925173142
885 881 1.3097687235989628
885 882 -1.1612469311124372E1
885 883 2.8172382128070453E-2
885 884 6.925706023430514E-2
885 885 6.341325596940801E1
885 892 -3.205670145301861E-1
885 956 3.253392488812384E-1
886 783 -9.770107811522644E-2
886 784 1.3736263736097098E-1
886 795 2.6902349243267926E-1
886 796 2.1062271062520815E-1
886 886 6.288852783200105
886 887 1.4538984630292554E-1
886 888 5.192135989000511E-1
886 889 -5.15670448257621
886 890 3.629456713573755E-1
886 891 -3.791781135615052E-2
886 893 4.212454212504182E-2
886 894 -3.497319333254296E-1
886 895 1.3159455127812683E-1
886 896 6.313415750951278E-1
886 938 -3.6947278908006154E-1
886 939 3.958333333329082E-1
886 940 -3.124999999978643E-1
886 941 8.829945089765351E-1
886 942 -6.47028775752587E-1
886 943 -1.0439560439585371
886 957 -1.2454212454162604E-1
886 958 -1.467260501512391
886 959 -3.06317044102165E-1
886 960 -1.0416666666880586E-1
887 783 1.2545787545837522E-1
887 784 7.907509157492381E-1
887 795 4.212454212504099E-2
887 796 -1.1861263736238534
887 886 1.4538984630292554E-1
887 887 7.154322182959593
887 888 1.970948704277793
887 889 4.2544567135726064E-1
887 890 -5.565677866155193
887 891 -1.439417353465333
887 893 -3.7119581586077705E-1
887 894 -1.4238782055092214E-2
887 895 2.154664653121613E-1
887 896 2.5206235616985856E-1
887 938 2.291666666662406E-1
887 939 -7.204931972063675E-1
887 940 6.271258503138702E-1
887 941 -6.470287757525852E-1
887 942 1.8458754897029368
887 943 -5.995879120777489E-1
887 957 -2.245059876416018E-1
887 958 -3.063170441021654E-1
887 959 -2.3337912711107522
887 960 -4.157561873438248E-1
888 783 6.868131868048397E-2
888 784 -1.3397054113602316E-1
888 795 6.272893772918745E-1
888 796 1.2719287083182868E-2
888 886 5.192135989000511E-1
888 887 1.970948704277793
888 888 1.217886470714798E1
888 889 3.7874885531051605E-1
888 890 -9.185840201291566E-1
888 891 -1.1372996212647447E1
888 893 3.9537545787462075E-1
888 894 2.833562271089475E-1
888 895 1.2660448070829952E-1
888 896 2.2038763344576393E-1
888 938 -3.124999999978644E-1
888 939 1.2223639455477364
888 940 -5.164115645742309E-1
888 941 -1.0439560439585363
888 942 -5.995879120777509E-1
888 943 6.622793935376111E-1
888 957 -1.1861263736238539
888 958 -5.208333333354722E-1
888 959 -1.010994282577688
888 960 -1.0508727028568399
889 788 -1.458333333317313E-1
889 789 -6.250000000014241E-1
889 795 -1.896707077495803
889 796 -2.3989709893282862E-2
889 886 -5.15670448257621
889 887 4.2544567135726064E-1
889 888 3.7874885531051605E-1
889 889 7.60877949786001
889 890 -4.8564493454089946E-2
889 891 -4.930011579947424E-1
889 917 6.588541666049498E-1
889 918 3.385416666686665E-2
889 919 -1.692708333356122E-1
889 938 -6.815476189467836E-1
889 939 2.708333333276146E-1
889 940 3.1249999999786465E-1
889 941 -3.2288783401212005
889 942 -1.3699441100911275E-1
889 943 -2.2417065371949738E-1
889 955 -1.0416666666709408E-1
889 957 3.7784475603905035E-2
889 958 2.8420371880067683
889 959 -4.781920758253501E-1
889 960 8.441834996361781E-1
890 788 -2.0833333333760924E-2
890 789 -1.041666666659537
890 795 2.0445114227057082E-1
890 796 2.529613699642903E-1
890 886 3.629456713573755E-1
890 887 -5.565677866155193
890 888 -9.185840201291566E-1
890 889 -4.8564493454089946E-2
890 890 8.50872895427921
890 891 1.1906239218842776
890 917 1.3020833333419406E-2
890 918 7.088541666051519E-1
890 919 -1.9531249999429345E-1
890 938 1.0416666666094826E-1
890 939 -2.815476189193365E-1
890 940 -3.7202380952159053E-1
890 941 -1.3699441100911236E-1
890 942 -3.712513958508722
890 943 -9.450807973630838E-1
890 955 -4.9583333332967916E-1
890 957 -2.8293347536111546
890 958 -4.781920758253507E-1
890 959 3.6673244096397237
890 960 2.0290825018190946
891 788 -3.125000000007131E-1
891 789 -1.8333333333176413E-1
891 795 -4.4065637655995404E-1
891 796 -3.2861023206074074
891 886 -3.791781135615052E-2
891 887 -1.439417353465333
891 888 -1.1372996212647447E1
891 889 -4.930011579947424E-1
891 890 1.1906239218842776
891 891 1.4307127057961802E1
891 917 -6.510416666965715E-2
891 918 -1.9531249998789177E-1
891 919 1.6463541665124546
891 938 3.124999999978645E-1
891 939 -9.672619047554567E-1
891 940 -1.7101190473995538
891 941 1.9249601294717222E-1
891 942 -3.498427021292191E-1
891 943 -4.260206850149957
891 955 -5.208333333297633E-1
891 957 2.529613699642921E-1
891 958 8.441834996361803E-1
891 959 2.029082501819095
891 960 4.85927653966187
892 578 2.9758985422632417E-1
892 579 5.647941631126925E-1
892 580 -9.817684952174374E-1
892 581 -2.633916941985313E-1
892 582 1.8702560591397193
892 583 -1.0912611968225331E1
892 587 1.112343670891263E-2
892 600 -1.8404710372624313
892 601 1.4221479836802537
892 602 3.1430483794665705
892 622 -1.692590814155807
892 623 -1.0323931406315887
892 624 -1.0149595990439608
892 625 2.102521758200437E-1
892 626 -2.976623829637413
892 627 -1.634799217930875
892 640 -3.467494808681296E-1
892 646 -2.8137303320324607
892 653 4.374999999998047E-1
892 681 2.4999999998909855E-1
892 686 -4.0120425995397835E-2
892 835 -4.3382864002382643E-1
892 836 6.22067760855011E-2
892 837 -1.083687123852556
892 838 -1.7423535170394135
892 839 -7.3139669223670625
892 840 -1.4123663940553806
892 847 -2.500000000093691E-1
892 848 9.604047419758628E-1
892 849 9.768980572368304E-1
892 873 1.54946921424578
892 874 -2.889813680700378E-1
892 875 1.969093000585593
892 883 1.5026341052427659
892 884 -7.612627892470546E-1
892 885 -3.205670145301861E-1
892 892 6.053332638474678E1
892 912 -7.343749999942938E-1
892 913 -2.8916108631466044
892 914 1.111421130968652
892 915 4.768601190243019E-1
892 916 -9.486607143008424E-1
892 953 -1.7011904760914016
892 954 2.6785714285506748
892 956 -3.459453615287876E1
893 764 1.0416666666709357E-1
893 765 -4.9583333332969726E-1
893 766 -5.208333333297691E-1
893 783 -2.2132932738526898E-1
893 784 -8.992806499463768E-15
893 785 -2.364796182716669E-1
893 786 6.900104335886931E-2
893 787 -3.953754578746173E-1
893 795 -1.4751311836950572E-16
893 796 -1.377253250851419E-15
893 886 4.212454212504182E-2
893 887 -3.7119581586077705E-1
893 888 3.9537545787462075E-1
893 893 1.4226127960809025E1
893 957 -1.2985920329610522E1
893 958 3.1151773686480055E-1
893 959 -4.421795253668979E-1
893 960 5.208333333297758E-1
894 886 -3.497319333254296E-1
894 887 -1.4238782055092214E-2
894 888 2.833562271089475E-1
894 894 1.1912384578517425E1
894 895 -6.646698423327323E-1
894 896 -1.3889609301279129
894 897 -2.7529761908456674E-1
894 898 1.562499999891416E-1
894 899 7.812500000161154E-1
894 906 2.57292941066037
894 907 -4.0122753768790875E-1
894 908 -3.070981482542641E-1
894 935 -1.8449280752906458
894 936 4.283854166652916E-1
894 937 -6.835937499942697E-1
894 938 -1.8493303571808106
894 939 -3.0468749999900896E-1
894 940 2.734374999973097E-1
894 941 -4.197998779459026
894 942 3.3910841791770374E-1
894 943 1.2704857454435579
894 944 -3.113213445803043
894 945 -3.937959179171633E-1
894 946 -9.970482454462495E-1
894 958 -2.8548137790342714
894 959 8.548757454197686E-1
894 960 7.681716012567664E-1
895 886 1.3159455127812683E-1
895 887 2.154664653121613E-1
895 888 1.2660448070829952E-1
895 894 -6.646698423327323E-1
895 895 1.2724796824772742E1
895 896 2.90628878012711
895 897 3.1249999989368685E-2
895 898 4.9255952377147527E-1
895 899 1.1160714287881582E-1
895 906 -4.0122753768790853E-1
895 907 2.0514649599123826
895 908 7.164777458626536E-1
895 935 2.8255208333207293E-1
895 936 -2.3077256942907005
895 937 1.1114211308823227
895 938 -1.7968749999923556E-1
895 939 -2.568973214367015
895 940 1.4601934524112359
895 941 3.391084179177032E-1
895 942 -3.3257191854332593
895 943 -2.3187748810489683
895 944 -3.9379591791716406E-1
895 945 -3.0087073255419616
895 946 -2.619841190340797
895 958 8.548757454197689E-1
895 959 -4.273162354135822
895 960 -1.4939766614806724
896 886 6.313415750951278E-1
896 887 2.5206235616985856E-1
896 888 2.2038763344576393E-1
896 894 -1.3889609301279129
896 895 2.90628878012711
896 896 2.3594018937722797E1
896 897 1.5625000001469286E-1
896 898 1.11607142866014E-1
896 899 1.4970238094537853
896 906 -6.550834962404443E-1
896 907 -7.862298673046386E-2
896 908 6.179900643804673
896 935 -6.835937499942704E-1
896 936 1.781063988013879
896 937 -4.02647569422759
896 938 2.734374999973101E-1
896 939 2.5018601190835934
896 940 -3.95290178576534
896 941 1.2704857454435579
896 942 -2.3187748810489732
896 943 -1.1062078966547405E1
896 944 -9.970482454462479E-1
896 945 -2.6198411903407948
896 946 -8.24195606089413
896 958 1.3931716012581878
896 959 -2.5356433281402233
896 960 -4.207918516992549
897 894 -2.7529761908456674E-1
897 895 3.1249999989368685E-2
897 896 1.5625000001469286E-1
897 897 1.3687351190364211E1
897 898 -2.4791666663001682E-1
897 899 -4.739583333676983E-1
897 900 9.951636904328461E-1
897 901 9.114583333281089E-2
897 902 4.557291667159193E-1
897 906 1.7455357142772718
897 907 4.375000000004938E-1
897 908 5.208333333790399E-2
897 909 -1.0392857142168141
897 910 -4.0833333334684496E-1
897 911 8.333333331358711E-2
897 932 -6.3883928567631045
897 933 4.687499999640533E-1
897 934 -1.09375000003
897 935 -3.252232142965902
897 936 -3.1770833333127435E-1
897 937 5.468749999929873E-1
897 944 -7.332217261973914
897 945 4.1927083333452153E-1
897 946 1.5494791666697085
897 947 1.8593749999299718
897 948 -4.73958333313112E-1
897 949 -1.276041666647101
898 894 1.562499999891416E-1
898 895 4.9255952377147527E-1
898 896 1.11607142866014E-1
898 897 -2.4791666663001682E-1
898 898 1.3860208333250013E1
898 899 1.0416666666058723
898 900 -1.3020833333528464E-2
898 901 1.3523065475761331
898 902 4.185267857153244E-1
898 906 4.375000000004935E-1
898 907 9.883928571399085E-1
898 908 2.604166666569876E-1
898 909 -4.0833333334684474E-1
898 910 -1.490714285663779
898 911 -2.2321428568026636E-1
898 932 3.4374999996428046E-1
898 933 -6.113392856765093
898 934 8.556547618927446E-1
898 935 -2.1354166666493565E-1
898 936 -4.021875000164085
898 937 1.8043154762681382
898 944 4.1927083333452214E-1
898 945 -7.2018601190936105
898 946 -2.836681547584889
898 947 -4.7395833331311193E-1
898 948 2.134374999949039
898 949 -1.4322916667399257
899 894 7.812500000161154E-1
899 895 1.1160714287881582E-1
899 896 1.4970238094537853
899 897 -4.739583333676983E-1
899 898 1.0416666666058723
899 899 2.7266458333145387E1
899 900 -6.510416661948132E-2
899 901 4.18526785696801E-1
899 902 3.3612351189445904
899 906 5.729166666733059E-1
899 907 -7.068452380988055E-1
899 908 4.727232142830096
899 909 -5.416666666878361E-1
899 910 -9.672619047242489E-1
899 911 -3.880357141805234E-1
899 932 -1.0937500000300013
899 933 1.599702380923925
899 934 -1.28991071420885E1
899 935 5.468749999929864E-1
899 936 2.7715773810424493
899 937 -7.459375000215312
899 944 1.5494791666697092
899 945 -2.8366815475848837
899 946 -1.808355654781401E1
899 947 -1.2760416666471006
899 948 -1.4322916667399244
899 949 1.9781249999244868
900 897 9.951636904328461E-1
900 898 -1.3020833333528464E-2
900 899 -6.510416661948132E-2
900 900 1.3929315476362127E1
900 901 2.1679687504815623E-1
900 902 1.0839843749414773
900 903 1.2559523809640858
900 904 4.166666666669309E-2
900 905 2.083333333723382E-1
900 909 3.608630943426051E-2
900 910 4.3749999997944944E-1
900 911 -2.8645833335229953E-1
900 912 3.190104169469812E-2
900 913 -6.406250000014464E-1
900 914 -1.1067708332726162E-1
900 929 -7.264415922235964
900 930 1.6341145832132517E-1
900 931 -2.27539062496388
900 932 -7.849578373584354
900 933 -3.307291667189985E-1
900 934 8.203124999188278E-1
900 947 -1.1344246030677025
900 948 1.2500000003834957E-1
900 949 6.250000000302793E-1
901 897 9.114583333281089E-2
901 898 1.3523065475761331
901 899 4.18526785696801E-1
901 900 2.1679687504815623E-1
901 901 1.340654761913694E1
901 902 1.5834263393448713
901 903 -4.166666666634701E-2
901 904 1.5202380952492949
901 905 4.4642857143740866E-1
901 909 4.3749999997944994E-1
901 910 -1.4962797622253524E-1
901 911 2.790178570937578E-1
901 912 -6.406250000014467E-1
901 913 -3.859561011827394E-1
901 914 -7.765997023567467E-1
901 929 5.9244791654985904E-2
901 930 -6.782719493650738
901 931 -3.045944941260301E-1
901 932 -2.4739583338595894E-1
901 933 -7.145411706821471
901 934 3.627232143065991E-1
901 947 1.2500000003834977E-1
901 948 -1.8153769840848863
901 949 -2.008928571396661
902 897 4.557291667159193E-1
902 898 4.185267857153244E-1
902 899 3.3612351189445904
902 900 1.0839843749414773
902 901 1.5834263393448713
902 902 2.7877111235230373E1
902 903 -2.0833333329639603E-1
902 904 4.4642857141973913E-1
902 905 3.663095238126138
902 909 1.3020833331643503E-1
902 910 -6.138392857615047E-1
902 911 1.8509300594445202
902 912 -6.315104166626633E-1
902 913 -1.5950520833087196
902 914 1.5804222470871991
902 929 -2.27539062496388
902 930 5.138578868074193E-1
902 931 -1.6883165921725226E1
902 932 8.203124999188287E-1
902 933 1.2555803571795308
902 934 -1.5225768850110214E1
902 947 6.250000000302791E-1
902 948 -2.0089285713966607
902 949 -6.223859126997382
903 647 1.2868303572039752
903 648 7.812499999826639E-3
903 649 3.9062500026041586E-2
903 653 -4.065476190258447
903 676 -6.293154761639396
903 677 -1.0937499999968054
903 900 1.2559523809640858
903 901 -4.166666666634701E-2
903 902 -2.0833333329639603E-1
903 903 1.5523065476147346E1
903 904 1.1979166666583632E-1
903 905 5.989583332665955E-1
903 912 2.453869047463837
903 913 2.1874999999936096E-1
903 914 4.6874999999266875E-1
903 915 -2.9166666666533203E-1
903 916 -6.24999999989191E-1
903 928 -5.2083333333280274E-2
903 929 -1.0161086309881398E1
903 930 3.906249999993553E-2
903 931 8.20312499997087E-1
904 647 -5.468749999991403E-2
904 648 1.46897321434605
904 649 4.185267857302787E-1
904 653 -2.9166666666533203E-1
904 676 -1.354166666663205E-1
904 677 -1.0044642856887214
904 900 4.166666666669309E-2
904 901 1.5202380952492949
904 902 4.4642857141973913E-1
904 903 1.1979166666583632E-1
904 904 1.6090922618999628E1
904 905 4.334077380934169
904 912 2.18749999999361E-1
904 913 2.075297618895004
904 914 -3.7202380999790896E-2
904 915 -4.751190475968942
904 916 -1.9345238094613155
904 928 -6.093154761640726
904 929 1.0156249999967634E-1
904 930 -1.0311086309880308E1
904 931 -2.2228422619343586
905 647 -2.7343749997602584E-1
905 648 4.1852678571346097E-1
905 649 3.4779017858672483
905 653 -1.041666666657926
905 676 -1.0937499999968054
905 677 -1.5736011904097737E1
905 900 2.083333333723382E-1
905 901 4.4642857143740866E-1
905 902 3.663095238126138
905 903 5.989583332665955E-1
905 904 4.334077380934169
905 905 3.689449404751625E1
905 912 7.812499999947373E-1
905 913 -8.556547619525886E-1
905 914 6.316369047229001
905 915 -2.827380952320343
905 916 -9.215476189936824
905 928 -1.1160714284736362E-1
905 929 8.203124999970871E-1
905 930 -1.4043898809647435
905 931 -2.5400372024704062E1
906 777 -1.2529761904775967
906 778 4.3750000000012057E-1
906 779 -2.0833333333583798E-1
906 785 -1.2493967157296415
906 786 3.792203181936705E-1
906 787 -1.0121696166239975
906 790 -3.32563904113345
906 791 4.48483417914908E-1
906 792 1.0361107454382283
906 811 1.8515527507859662
906 812 -1.984834179138152E-1
906 813 2.0888892545630013
906 832 -1.4538690476765816
906 833 -6.562500000003187E-1
906 834 6.25000000007645E-1
906 850 -5.160443722799068
906 851 -4.772727272707913E-1
906 852 -2.130681818178929
906 894 2.57292941066037
906 895 -4.0122753768790853E-1
906 896 -6.550834962404443E-1
906 897 1.7455357142772718
906 898 4.375000000004935E-1
906 899 5.729166666733059E-1
906 906 2.1354564062499946E1
906 907 4.636365097276507E-2
906 908 1.4424597776252461
906 909 -1.84361471858267
906 910 1.9886363637618332E-1
906 911 -8.04924242368024E-1
906 944 -1.117261447912984E1
906 945 2.272727272696979E-1
906 946 -9.943181818223017E-1
906 958 -2.0660280226947076
906 959 -4.419700678550054E-1
906 960 4.013424426210649E-2
907 777 4.3750000000012107E-1
907 778 -3.4386904762081008
907 779 1.3392857142562797
907 785 3.7922031819367097E-1
907 786 -5.478205070886345E-1
907 787 5.42578938457349E-1
907 790 4.4848341791490837E-1
907 791 -2.601490063712919
907 792 -2.424528690393429
907 811 -1.9848341791381513E-1
907 812 2.8892523159210732
907 813 8.977997374835882E-1
907 832 -6.562500000003194E-1
907 833 -3.175297619107072
907 834 1.934523809570493
907 850 -4.772727272707913E-1
907 851 -6.022781385127832
907 852 -2.617694805127883
907 894 -4.0122753768790875E-1
907 895 2.0514649599123826
907 896 -7.862298673046386E-2
907 897 4.375000000004938E-1
907 898 9.883928571399085E-1
907 899 -7.068452380988055E-1
907 906 4.636365097276507E-2
907 907 2.387917389213089E1
907 908 -2.4362762625699927
907 909 1.988636363761836E-1
907 910 -2.0335497832247507E-1
907 911 1.4204545455723788E-1
907 944 2.2727272726969738E-1
907 945 -1.2072125359356715E1
907 946 4.144423758037723
907 958 -4.4197006785500614E-1
907 959 -1.7467236361805067
907 960 -7.366894294420963E-1
908 777 -1.0416666666988282E-1
908 778 6.696428571183207E-1
908 779 -1.3404761904635927
908 785 -5.268216312768438E-1
908 786 3.427163010980988E-1
908 787 -5.663662843231524E-1
908 790 1.0361107454382286
908 791 -2.42452869039343
908 792 -9.441881656377573
908 811 2.0888892545630013
908 812 8.977997374835893E-1
908 813 4.477017175421194
908 832 3.125000000097133E-1
908 833 9.672619048147005E-1
908 834 -1.3226190477606705
908 850 -2.130681818178929
908 851 -2.617694805127886
908 852 -1.160922619012519E1
908 894 -3.070981482542641E-1
908 895 7.164777458626536E-1
908 896 6.179900643804673
908 897 5.208333333790399E-2
908 898 2.604166666569876E-1
908 899 4.727232142830096
908 906 1.4424597776252461
908 907 -2.4362762625699927
908 908 3.980238728740913E1
908 909 -1.6382575757013578
908 910 1.4204545455723827E-1
908 911 -1.2827380941027194E-1
908 944 -9.943181818223016E-1
908 945 4.144423758037725
908 946 -2.794377055960941E1
908 958 7.693009109294848E-1
908 959 -6.622846675380056E-1
908 960 -2.8339235113952417
909 832 -3.005952380585304E-1
909 833 4.375000000001179E-1
909 834 -4.166666666716732E-1
909 835 -1.5039682540696317
909 836 -5.833333333339512E-1
909 837 8.333333333422025E-1
909 847 -2.4662698411544994
909 848 -5.833333333269184E-1
909 849 -1.2500000000082698
909 850 -2.48836580103253
909 851 4.7727272727079184E-1
909 852 1.8181818181808604
909 897 -1.0392857142168141
909 898 -4.0833333334684474E-1
909 899 -5.416666666878361E-1
909 900 3.608630943426051E-2
909 901 4.3749999997944994E-1
909 902 1.3020833331643503E-1
909 906 -1.84361471858267
909 907 1.988636363761836E-1
909 908 -1.6382575757013578
909 909 2.3437959956663885E1
909 910 -6.1363636382293835E-2
909 911 1.1382575756759954
909 912 -3.375868055544981
909 913 -2.0833333309258975E-2
909 914 4.947916667054913E-1
909 932 2.5555555556317473
909 933 4.425883270986475E-11
909 934 5.532138636077377E-11
909 944 1.2964015151026511
909 945 -5.606060606032474E-1
909 946 2.4526515151557726
909 947 -1.6088293650724868E1
909 948 3.3333333330479376E-1
909 949 -1.458333333365007
909 950 1.7802579365519755
909 951 3.3333333332691817E-1
909 952 -1.562499999997935
910 832 4.3750000000011846E-1
910 833 -1.0577380952025204
910 834 1.4880952380486903
910 835 -5.833333333339511E-1
910 836 -3.351587301700986
910 837 1.7857142857755457
910 847 -5.833333333269184E-1
910 848 -2.40912698397914
910 849 -2.6785714285312388
910 850 4.7727272727079173E-1
910 851 -3.054599567277297
910 852 -2.5162337663047336
910 897 -4.0833333334684496E-1
910 898 -1.490714285663779
910 899 -9.672619047242489E-1
910 900 4.3749999997944944E-1
910 901 -1.4962797622253524E-1
910 902 -6.138392857615047E-1
910 906 1.9886363637618332E-1
910 907 -2.0335497832247507E-1
910 908 1.4204545455723827E-1
910 909 -6.1363636382293835E-2
910 910 2.5368176406841062E1
910 911 -1.8682359306891427
910 912 -2.083333330925881E-2
910 913 -3.2472966269431893
910 914 -5.022321429181975E-1
910 932 4.425940169916487E-11
910 933 1.3365079365446455
910 934 1.4285714285568614
910 944 -5.606060606032468E-1
910 945 1.8054924241986385
910 946 8.049242424103513E-1
910 947 3.3333333330479437E-1
910 948 -1.6926388888793596E1
910 949 2.827380952341681
910 950 3.33333333326917E-1
910 951 3.380257936521171
910 952 6.69642857238699E-1
911 832 -2.083333333397641E-1
911 833 7.440476190047076E-1
911 834 -3.880952380024481E-1
911 835 4.1666666667760327E-1
911 836 8.928571429202832E-1
911 837 -1.3873015875421721
911 847 -1.2500000000082703
911 848 -2.6785714285312365
911 849 -5.697817460067382
911 850 1.8181818181808602
911 851 -2.516233766304734
911 852 -6.084226190880273
911 897 8.333333331358711E-2
911 898 -2.2321428568026636E-1
911 899 -3.880357141805234E-1
911 900 -2.8645833335229953E-1
911 901 2.790178570937578E-1
911 902 1.8509300594445202
911 906 -8.04924242368024E-1
911 907 1.4204545455723788E-1
911 908 -1.2827380941027194E-1
911 909 1.1382575756759954
911 910 -1.8682359306891427
911 911 4.278491071414572E1
911 912 -3.385416666278423E-1
911 913 -5.022321429182013E-1
911 914 -2.6994915674770024
911 932 5.5320484304566264E-11
911 933 1.4285714285568616
911 934 3.4079365079909296
911 944 2.452651515155773
911 945 8.049242424103522E-1
911 946 2.636458333205142
911 947 -1.4583333333650057
911 948 2.827380952341679
911 949 -3.6457638888642755E1
911 950 -1.5624999999979345
911 951 6.696428572387018E-1
911 952 2.550644841416516
912 578 -1.8237537203124108
912 587 7.023809524353114E-1
912 640 1.1002604166894652
912 653 -4.278645833130032
912 681 8.437499999507615E-1
912 686 -9.37500000043168E-1
912 835 -3.005952380273851E-1
912 836 4.3749999999973943E-1
912 837 -6.250000000056175E-1
912 847 2.3412698399232987E-1
912 848 5.833333333269184E-1
912 849 9.375000000082687E-1
912 892 -7.343749999942938E-1
912 900 3.190104169469812E-2
912 901 -6.406250000014467E-1
912 902 -6.315104166626633E-1
912 903 2.453869047463837
912 904 2.18749999999361E-1
912 905 7.812499999947373E-1
912 909 -3.375868055544981
912 910 -2.083333330925881E-2
912 911 -3.385416666278423E-1
912 912 2.537089888023631E1
912 913 1.0565476188723608E-1
912 914 2.6785714276706135E-1
912 915 4.374999999854341E-1
912 916 -2.864583332907565E-1
912 929 -3.417517006652654
912 930 3.9285714286507567E-1
912 931 -5.357142857268833E-1
912 947 7.22151360524885E-1
912 948 -1.964285714290149E-1
912 949 1.8303571428624987
912 950 -1.716269841263067E1
912 951 -3.333333333297488E-1
912 952 -2.0671890125593494E-12
912 953 1.0899545155318435E-11
912 954 -1.5624999999630331
912 956 -2.5000000001090134E-1
913 578 -7.343749999942938E-1
913 587 -2.500000000109018E-1
913 640 1.9298735119214503
913 653 4.3749999998543426E-1
913 681 1.0898351665566963E-11
913 686 -2.4553571427762577
913 835 4.3749999999973943E-1
913 836 -1.0577380951727764
913 837 1.6369047618551824
913 847 5.833333333269186E-1
913 848 1.7698412681739584E-1
913 849 -2.4553571428983925
913 892 -2.8916108631466044
913 900 -6.406250000014464E-1
913 901 -3.859561011827394E-1
913 902 -1.5950520833087196
913 903 2.1874999999936096E-1
913 904 2.075297618895004
913 905 -8.556547619525886E-1
913 909 -2.0833333309258975E-2
913 910 -3.2472966269431893
913 911 -5.022321429182013E-1
913 912 1.0565476188723608E-1
913 913 2.8443347859774395E1
913 914 -3.3163265304432614
913 915 -4.2929315474040655
913 916 9.486607142316517E-1
913 929 3.928571428650751E-1
913 930 -4.548129251528649
913 931 3.5076530612166303
913 947 -1.964285714290161E-1
913 948 2.187457482960883
913 949 1.3711734694686406
913 950 -3.33333333329746E-1
913 951 -1.9662698412599855E1
913 952 2.4553571426905347
913 953 2.6723214285290418
913 954 -6.696428570866699E-1
913 956 5.309523810011603E-1
914 578 5.794270833581995E-1
914 587 -9.375000000431679E-1
914 640 -1.8180896578856163
914 653 -1.11979166662409
914 681 -1.5624999999630318
914 686 3.5238095245939566E-1
914 835 -3.125000000076853E-1
914 836 8.184523809032086E-1
914 837 -3.8809523792283623E-1
914 847 9.375000000082685E-1
914 848 -2.455357142898393
914 849 1.1746031716153166E-1
914 892 1.111421130968652
914 900 -1.1067708332726162E-1
914 901 -7.765997023567467E-1
914 902 1.5804222470871991
914 903 4.6874999999266875E-1
914 904 -3.7202380999790896E-2
914 905 6.316369047229001
914 909 4.947916667054913E-1
914 910 -5.022321429181975E-1
914 911 -2.6994915674770024
914 912 2.6785714276706135E-1
914 913 -3.3163265304432614
914 914 4.8270423221014674E1
914 915 9.486607142316477E-1
914 916 -6.126078868545585
914 929 -5.357142857268833E-1
914 930 3.507653061216633
914 931 -8.425680271731537
914 947 1.8303571428624987
914 948 1.371173469468637
914 949 6.775722788623834E-1
914 950 -2.0681697095644336E-12
914 951 2.4553571426905334
914 952 -3.993799603161327E1
914 953 -6.696428570866668E-1
914 954 2.0808035713616553
914 956 -2.4553571427762564
915 578 4.374999999998046E-1
915 579 -5.250000000002966E-1
915 580 8.71220238074005E-1
915 581 -3.199404761991187E-1
915 640 -5.5803571441815025E-2
915 647 1.640624999992742E-1
915 648 2.858556547489785
915 649 -5.115327381419834E-1
915 653 -2.5297618380142467E-3
915 654 -8.072916667493925E-2
915 655 -5.022395833017311
915 656 -7.161458332647599E-1
915 663 -1.2499999996483335E-1
915 664 4.7395833335171794E-1
915 665 2.1343750000492845
915 666 1.4322916666020082
915 676 2.91666666604446E-1
915 677 1.3392857143117016
915 681 -3.3333333335932147E-1
915 892 4.768601190243019E-1
915 903 -2.9166666666533203E-1
915 904 -4.751190475968942
915 905 -2.827380952320343
915 912 4.374999999854341E-1
915 913 -4.2929315474040655
915 914 9.486607142316477E-1
915 915 3.077132983694621E1
915 916 2.3899872448802784
915 926 -1.8153769841582177
915 927 2.0089285714536804
915 928 -1.0373148147873204E1
915 929 -6.428571428660641E-1
915 930 3.8816326527777827
915 931 5.102040816165812E-1
915 950 1.9642857142812556E-1
915 951 2.1874574830254767
915 952 -1.371173469306866
915 953 -1.6926388888965107E1
915 954 -2.827380952421012
916 578 2.8645833334029813E-1
916 579 -5.93750000009811E-1
916 580 -1.0639880952503735
916 581 3.4705505951946236
916 640 3.4484002975755104
916 647 4.036458333268587E-1
916 648 2.3251488090926836E-1
916 649 7.992485118719509
916 653 2.3980654760885334
916 654 -1.8098958333196173
916 655 -7.16145833264757E-1
916 656 -9.827083332689407
916 663 6.249999999736968E-1
916 664 -1.2760416666834873
916 665 1.4322916666020071
916 666 1.9781250000742383
916 676 -2.0833333324411984E-1
916 677 -1.6206481481063296E1
916 681 -1.4583333333048434
916 892 -9.486607143008424E-1
916 903 -6.24999999989191E-1
916 904 -1.9345238094613155
916 905 -9.215476189936824
916 912 -2.864583332907565E-1
916 913 9.486607142316517E-1
916 914 -6.126078868545585
916 915 2.3899872448802784
916 916 5.612826010847307E1
916 926 2.00892857145368
916 927 -6.223859126951855
916 928 1.3392857143117034
916 929 7.142857142606515E-1
916 930 5.102040816165799E-1
916 931 1.0361224489275365E1
916 950 1.8303571428517895
916 951 -1.3711734693068687
916 952 6.775722789607113E-1
916 953 -2.827380952421012
916 954 -3.645763888908606E1
917 889 6.588541666049498E-1
917 890 1.3020833333419406E-2
917 891 -6.510416666965715E-2
917 917 1.9491071428608247E1
917 918 -1.8750000000114284E-1
917 919 9.375000000210721E-1
917 920 1.087797618960302
917 921 5.2083333333677206E-2
917 922 -2.6041666667862756E-1
917 935 -7.355282737838243
917 936 -1.3020833333419163E-2
917 937 2.7343750000156575E-1
917 938 -9.09895833338564
917 939 2.6041666666839366E-2
917 940 -5.468750000031372E-1
917 941 -8.614583333513496
917 942 2.1875000000125316E-1
917 943 -6.770833333424422E-1
917 944 3.831101190563883
917 945 -1.0937500000062719E-1
917 946 3.385416666712264E-1
918 889 3.385416666686665E-2
918 890 7.088541666051519E-1
918 891 -1.9531249998789177E-1
918 917 -1.8750000000114284E-1
918 918 2.0519642857185477E1
918 919 -5.580357142877671
918 920 1.0416666666783186E-2
918 921 1.1985119046751003
918 922 -3.3482142856542296E-1
918 935 -3.3854166666866255E-2
918 936 -7.405282737838445
918 937 1.5345982142638124
918 938 6.770833333373383E-2
918 939 -8.99895833338524
918 940 1.6927083333433428
918 941 2.1875000000125258E-1
918 942 -9.66458333351952
918 943 3.3854166667122296
918 944 -1.0937500000062725E-1
918 945 3.6418154762774764
918 946 -5.022321428884007E-1
919 889 -1.692708333356122E-1
919 890 -1.9531249999429345E-1
919 891 1.6463541665124546
919 917 9.375000000210721E-1
919 918 -5.580357142877671
919 919 4.730535714294113E1
919 920 -5.208333334671762E-2
919 921 -3.3482142855262137E-1
919 922 2.8056547616870846
919 935 2.734375000015654E-1
919 936 8.649553571322559E-1
919 937 -1.8387425594595687E1
919 938 -5.468750000031378E-1
919 939 6.510416666709813E-1
919 940 -2.2748958333463943E1
919 941 -8.85416666674351E-1
919 942 4.427083333371789
919 943 -2.0289583333776587E1
919 944 4.4270833333718135E-1
919 945 1.6741071424955756E-1
919 946 9.66860119069555
920 917 1.087797618960302
920 918 1.0416666666783186E-2
920 919 -5.208333334671762E-2
920 920 1.6484188988147967E1
920 921 -1.6015625000084355E-1
920 922 8.007812500452414E-1
920 923 1.2868303570758424
920 924 5.4687500000144815E-2
920 925 -2.7343750002665684E-1
920 932 -8.758184523438032
920 933 -2.6041666666838752E-2
920 934 5.46875000003134E-1
920 935 -7.696056547809843
920 936 3.906250000024915E-2
920 937 -8.203125000045184E-1
920 944 -5.547061012129468
920 945 2.4609375000140887E-1
920 946 -6.054687500111815E-1
920 947 3.1424851191932346
920 948 -1.6406250000090372E-1
920 949 4.036458333406989E-1
921 917 5.2083333333677206E-2
921 918 1.1985119046751003
921 919 -3.3482142855262137E-1
921 920 -1.6015625000084355E-1
921 921 1.7249367559581692E1
921 922 -4.673549107164544
921 923 -7.81250000018259E-3
921 924 1.4689732142196803
921 925 -4.1852678571532553E-1
921 932 -6.770833333373287E-2
921 933 -8.858184523438434
921 934 1.8787202380637447
921 935 1.0156250000057633E-1
921 936 -7.546056547809273
921 937 1.3485863095466808
921 944 2.4609375000140904E-1
921 945 -6.371168154991517
921 946 2.4321056548220223
921 947 -1.6406250000090356E-1
921 948 2.8585565477627504
921 949 -2.3251488099995743E-1
922 917 -2.6041666667862756E-1
922 918 -3.3482142856542296E-1
922 919 2.8056547616870846
922 920 8.007812500452414E-1
922 921 -4.673549107164544
922 922 3.9682403273933254E1
922 923 3.9062499971275366E-2
922 924 -4.18526785696802E-1
922 925 3.4779017855468646
922 932 5.468750000031342E-1
922 933 1.134672619032564
922 934 -2.1893898808595246E1
922 935 -8.203125000045175E-1
922 936 3.8132440477236657E-1
922 937 -1.9242485119524364E1
922 944 -9.179687500091145E-1
922 945 3.3993675595778132
922 946 -1.282206101246035E1
922 947 6.119791666726083E-1
922 948 5.115327380440251E-1
922 949 7.992485119412756
923 663 1.255952380940696
923 920 1.2868303570758424
923 921 -7.81250000018259E-3
923 922 3.9062499971275366E-2
923 923 1.5523065476237212E1
923 924 -1.1979166666744541E-1
923 925 5.989583334018633E-1
923 926 4.166666666698642E-2
923 927 -2.0833333337027102E-1
923 929 -1.0161086309151427E1
923 930 -3.906250000010653E-2
923 931 8.203125000038078E-1
923 932 -6.293154762183148
923 933 5.208333333338593E-2
923 934 -1.0937500000031977
923 947 -4.065476190693462
923 948 2.916666666680019E-1
923 949 -6.250000000108098E-1
923 950 2.453869047774289
923 951 -2.187500000006397E-1
923 952 4.687500000073316E-1
924 663 -4.1666666666640345E-2
924 920 5.4687500000144815E-2
924 921 1.4689732142196803
924 922 -4.18526785696802E-1
924 923 -1.1979166666744541E-1
924 924 1.6090922619098407E1
924 925 -4.334077380969345
924 926 1.520238095226915
924 927 -4.4642857143740955E-1
924 929 -1.0156250000043378E-1
924 930 -1.0311086309152683E1
924 931 2.222842261872416
924 932 1.3541666666701238E-1
924 933 -6.093154762181818
924 934 1.0044642857398496
924 947 2.916666666680019E-1
924 948 -4.751190476410762
924 949 1.9345238095863206
924 950 -2.1875000000063946E-1
924 951 2.0752976192002617
924 952 3.7202380904969856E-2
925 663 2.0833333329432827E-1
925 920 -2.7343750002665684E-1
925 921 -4.1852678571532553E-1
925 922 3.4779017855468646
925 923 5.989583334018633E-1
925 924 -4.334077380969345
925 925 3.6894494047731364E1
925 926 -4.464285714197399E-1
925 927 3.663095238064381
925 929 8.203125000038072E-1
925 930 1.4043898809389663
925 931 -2.5400372022878E1
925 932 -1.093750000003197
925 933 1.1160714286691897E-1
925 934 -1.5736011905458623E1
925 947 -1.0416666666754089
925 948 2.8273809524415823
925 949 -9.215476191015153
925 950 7.812500000052633E-1
925 951 8.55654761856943E-1
925 952 6.316369048009175
926 653 -1.2499999996483338E-1
926 663 -2.1679687495592767E-1
926 664 -9.114583333379497E-2
926 665 1.3523065476586384
926 666 -4.185267857302783E-1
926 676 2.4739583328580078E-1
926 677 -3.6272321426211906E-1
926 681 -4.3750000001863926E-1
926 915 -1.8153769841582177
926 916 2.00892857145368
926 923 4.166666666698642E-2
926 924 1.520238095226915
926 925 -4.464285714197399E-1
926 926 1.3406547618974642E1
926 927 -1.5834263392331167
926 928 -7.14541170591026
926 929 -5.9244791678144504E-2
926 930 -6.782719494430519
926 931 3.045944939742806E-1
926 950 6.406249999985532E-1
926 951 -3.8595610119821044E-1
926 952 7.765997024051644E-1
926 953 -1.496279761629886E-1
926 954 -2.790178571878711E-1
927 653 6.249999999736972E-1
927 663 1.083984375058154
927 664 4.5572916662188545E-1
927 665 -4.185267857134606E-1
927 666 3.361235119142351
927 676 8.203125000748035E-1
927 677 -1.5225768848366256E1
927 681 1.3020833334784634E-1
927 915 2.0089285714536804
927 916 -6.223859126951855
927 923 -2.0833333337027102E-1
927 924 -4.4642857143740955E-1
927 925 3.663095238064381
927 926 -1.5834263392331167
927 927 2.7877111235042346E1
927 928 -1.2555803571034758
927 929 -2.275390625035446
927 930 -5.138578869953337E-1
927 931 -1.6883165923483883E1
927 950 -6.315104166706694E-1
927 951 1.5950520833579613
927 952 1.580422246960447
927 953 6.138392856711543E-1
927 954 1.8509300595924651
928 647 2.604166666652063E-2
928 648 -8.858184524152113
928 649 -1.13467261906202
928 653 2.916666666044457E-1
928 654 -4.3750000000704126E-1
928 655 5.670833333088396
928 656 1.5624999999585194
928 663 3.307291666194272E-1
928 664 -4.68750000032766E-1
928 665 -6.113392857491208
928 666 -1.5997023809803819
928 673 1.822916666562187E-1
928 674 1.3010416667897944
928 675 3.906250000210948E-1
928 676 -2.291666665314396E-1
928 677 1.6517857142740218
928 681 4.01826766305291E-11
928 903 -5.2083333333280274E-2
928 904 -6.093154761640726
928 905 -1.1160714284736362E-1
928 915 -1.0373148147873204E1
928 916 1.3392857143117034
928 926 -7.14541170591026
928 927 -1.2555803571034758
928 928 2.832334656062369E1
928 929 3.567708333177316E-1
928 930 1.9515625000930845
928 931 5.859375000135844E-1
928 953 1.3365079364725447
928 954 -1.4285714285856823
929 653 3.6836734691494497
929 663 -7.264415922989816
929 676 1.5390625000610942
929 677 1.1718750000271717E-1
929 900 -7.264415922235964
929 901 5.9244791654985904E-2
929 902 -2.27539062496388
929 903 -1.0161086309881398E1
929 904 1.0156249999967634E-1
929 905 8.203124999970871E-1
929 912 -3.417517006652654
929 913 3.928571428650751E-1
929 914 -5.357142857268833E-1
929 915 -6.428571428660641E-1
929 916 7.142857142606515E-1
929 923 -1.0161086309151427E1
929 924 -1.0156250000043378E-1
929 925 8.203125000038072E-1
929 926 -5.9244791678144504E-2
929 927 -2.275390625035446
929 928 3.567708333177316E-1
929 929 3.1240566539099053E1
929 930 5.863276530959638E-11
929 931 2.3186383928560885
929 932 1.539062499926572
929 933 -3.5677083335047033E-1
929 934 1.171874999967734E-1
929 947 3.6836734696279327
929 948 6.428571428482222E-1
929 949 7.142857143107761E-1
929 950 -3.417517006952846
929 951 -3.9285714284921125E-1
929 952 -5.357142857016912E-1
930 653 -6.428571428660648E-1
930 663 -1.6341145834507026E-1
930 676 1.9010416665106514E-1
930 677 5.859375000135847E-1
930 900 1.6341145832132517E-1
930 901 -6.782719493650738
930 902 5.138578868074193E-1
930 903 3.906249999993553E-2
930 904 -1.0311086309880308E1
930 905 -1.4043898809647435
930 912 3.9285714286507567E-1
930 913 -4.548129251528649
930 914 3.507653061216633
930 915 3.8816326527777827
930 916 5.102040816165799E-1
930 923 -3.906250000010653E-2
930 924 -1.0311086309152683E1
930 925 1.4043898809389663
930 926 -6.782719494430519
930 927 -5.138578869953337E-1
930 928 1.9515625000930845
930 929 5.863276530959638E-11
930 930 3.1617479804403203E1
930 931 2.3187787800985987E-10
930 932 -1.9010416668380334E-1
930 933 1.9515624998923424
930 934 -5.859374999838616E-1
930 947 6.428571428482222E-1
930 948 3.881632653349263
930 949 -5.102040816487314E-1
930 950 -3.9285714284921164E-1
930 951 -4.548129251872779
930 952 -3.507653061232392
931 653 7.142857142606519E-1
931 663 -2.275390625035447
931 676 1.1718750000271752E-1
931 677 4.76406250013139
931 900 -2.27539062496388
931 901 -3.045944941260301E-1
931 902 -1.6883165921725226E1
931 903 8.20312499997087E-1
931 904 -2.2228422619343586
931 905 -2.5400372024704062E1
931 912 -5.357142857268833E-1
931 913 3.5076530612166303
931 914 -8.425680271731537
931 915 5.102040816165812E-1
931 916 1.0361224489275365E1
931 923 8.203125000038078E-1
931 924 2.222842261872416
931 925 -2.5400372022878E1
931 926 3.045944939742806E-1
931 927 -1.6883165923483883E1
931 928 5.859375000135844E-1
931 929 2.3186383928560885
931 930 2.3187787800985987E-10
931 931 7.116786245743928E1
931 932 1.1718749999677222E-1
931 933 -5.859374999838622E-1
931 934 4.764062499844516
931 947 7.142857143107766E-1
931 948 -5.102040816487308E-1
931 949 1.036122449031841E1
931 950 -5.357142857016906E-1
931 951 -3.50765306123239
931 952 -8.425680272486272
932 897 -6.3883928567631045
932 898 3.4374999996428046E-1
932 899 -1.0937500000300013
932 900 -7.849578373584354
932 901 -2.4739583338595894E-1
932 902 8.203124999188287E-1
932 909 2.5555555556317473
932 910 4.425940169916487E-11
932 911 5.5320484304566264E-11
932 920 -8.758184523438032
932 921 -6.770833333373287E-2
932 922 5.468750000031342E-1
932 923 -6.293154762183148
932 924 1.3541666666701238E-1
932 925 -1.093750000003197
932 929 1.539062499926572
932 930 -1.9010416668380334E-1
932 931 1.1718749999677222E-1
932 932 2.841699735479891E1
932 933 2.2916666681563136E-1
932 934 5.208333334860052E-1
932 935 1.026041666571652
932 936 -3.4895833334471976E-1
932 937 7.81249999954931E-2
932 944 5.270833333538832
932 945 4.3749999999219297E-1
932 946 3.125000000093877E-1
932 947 -9.519179894499064
932 948 -2.9166666673516195E-1
932 949 -2.083333334317434E-1
933 897 4.687499999640533E-1
933 898 -6.113392856765093
933 899 1.599702380923925
933 900 -3.307291667189985E-1
933 901 -7.145411706821471
933 902 1.2555803571795308
933 909 4.425883270986475E-11
933 910 1.3365079365446455
933 911 1.4285714285568616
933 920 -2.6041666666838752E-2
933 921 -8.858184523438434
933 922 1.134672619032564
933 923 5.208333333338593E-2
933 924 -6.093154762181818
933 925 1.1160714286691897E-1
933 929 -3.5677083335047033E-1
933 930 1.9515624998923424
933 931 -5.859374999838622E-1
933 932 2.2916666681563136E-1
933 933 2.8323346561070235E1
933 934 -1.651785714295963
933 935 -1.8229166667805408E-1
933 936 1.301041666534276
933 937 -3.90624999977469E-1
933 944 4.374999999921936E-1
933 945 5.670833333607018
933 946 -1.5625000000469191
933 947 -2.916666667351615E-1
933 948 -1.0373148148441691E1
933 949 -1.3392857142555867
934 897 -1.09375000003
934 898 8.556547618927446E-1
934 899 -1.28991071420885E1
934 900 8.203124999188278E-1
934 901 3.627232143065991E-1
934 902 -1.5225768850110214E1
934 909 5.532138636077377E-11
934 910 1.4285714285568614
934 911 3.4079365079909296
934 920 5.46875000003134E-1
934 921 1.8787202380637447
934 922 -2.1893898808595246E1
934 923 -1.0937500000031977
934 924 1.0044642857398496
934 925 -1.5736011905458623E1
934 929 1.171874999967734E-1
934 930 -5.859374999838616E-1
934 931 4.764062499844516
934 932 5.208333334860052E-1
934 933 -1.651785714295963
934 934 5.744239418012205E1
934 935 7.81249999954938E-2
934 936 -3.906249999774685E-1
934 937 3.176041666456849
934 944 3.125000000093861E-1
934 945 -1.5625000000469194
934 946 1.317083333377188E1
934 947 -2.0833333343174468E-1
934 948 -1.3392857142555872
934 949 -1.6206481481933626E1
935 894 -1.8449280752906458
935 895 2.8255208333207293E-1
935 896 -6.835937499942704E-1
935 897 -3.252232142965902
935 898 -2.1354166666493565E-1
935 899 5.468749999929864E-1
935 917 -7.355282737838243
935 918 -3.3854166666866255E-2
935 919 2.734375000015654E-1
935 920 -7.696056547809843
935 921 1.0156250000057633E-1
935 922 -8.203125000045175E-1
935 932 1.026041666571652
935 933 -1.8229166667805408E-1
935 934 7.81249999954938E-2
935 935 1.859306795642728E1
935 936 1.6796875001940736E-1
935 937 4.101562500104735E-1
935 938 5.130208332610615E-1
935 939 -3.411458333388609E-1
935 940 3.9062499996904726E-2
935 941 5.270833333423869
935 942 4.374999999933101E-1
935 943 3.1250000000273215E-1
935 944 -5.254464285779232
935 945 -2.1874999999664987E-1
935 946 -1.5625000000136857E-1
936 894 4.283854166652916E-1
936 895 -2.3077256942907005
936 896 1.781063988013879
936 897 -3.1770833333127435E-1
936 898 -4.021875000164085
936 899 2.7715773810424493
936 917 -1.3020833333419163E-2
936 918 -7.405282737838445
936 919 8.649553571322559E-1
936 920 3.906250000024915E-2
936 921 -7.546056547809273
936 922 3.8132440477236657E-1
936 932 -3.4895833334471976E-1
936 933 1.301041666534276
936 934 -3.906249999774685E-1
936 935 1.6796875001940736E-1
936 936 2.304157986126694E1
936 937 -4.431733630992114
936 938 -1.744791666721937E-1
936 939 6.505208332261367E-1
936 940 -1.9531249998453154E-1
936 941 4.3749999999330924E-1
936 942 5.67083333348671
936 943 -1.5625000000136542
936 944 -2.187499999966506E-1
936 945 -9.383035714411562
936 946 7.81250000006819E-1
937 894 -6.835937499942697E-1
937 895 1.1114211308823227
937 896 -4.02647569422759
937 897 5.468749999929873E-1
937 898 1.8043154762681382
937 899 -7.459375000215312
937 917 2.7343750000156575E-1
937 918 1.5345982142638124
937 919 -1.8387425594595687E1
937 920 -8.203125000045184E-1
937 921 1.3485863095466808
937 922 -1.9242485119524364E1
937 932 7.81249999954931E-2
937 933 -3.90624999977469E-1
937 934 3.176041666456849
937 935 4.101562500104735E-1
937 936 -4.431733630992114
937 937 4.038532986124544E1
937 938 3.906249999690528E-2
937 939 -1.953124999845311E-1
937 940 1.5880208331826076
937 941 3.125000000027318E-1
937 942 -1.5625000000136549
937 943 1.3170833333490803E1
937 944 -1.5625000000136885E-1
937 945 7.812500000068157E-1
937 946 -9.204464285812742
938 886 -3.6947278908006154E-1
938 887 2.291666666662406E-1
938 888 -3.124999999978644E-1
938 889 -6.815476189467836E-1
938 890 1.0416666666094826E-1
938 891 3.124999999978645E-1
938 894 -1.8493303571808106
938 895 -1.7968749999923556E-1
938 896 2.734374999973101E-1
938 917 -9.09895833338564
938 918 6.770833333373383E-2
938 919 -5.468750000031378E-1
938 935 5.130208332610615E-1
938 936 -1.744791666721937E-1
938 937 3.906249999690528E-2
938 938 1.6724383503468022E1
938 939 -4.6874999989489685E-2
938 940 2.3437500000892814E-1
938 941 -5.238095238135786
938 942 -3.3827863024304708E-15
938 943 -6.318765199184362E-15
939 886 3.958333333329082E-1
939 887 -7.204931972063675E-1
939 888 1.2223639455477364
939 889 2.708333333276146E-1
939 890 -2.815476189193365E-1
939 891 -9.672619047554567E-1
939 894 -3.0468749999900896E-1
939 895 -2.568973214367015
939 896 2.5018601190835934
939 917 2.6041666666839366E-2
939 918 -8.99895833338524
939 919 6.510416666709813E-1
939 935 -3.411458333388609E-1
939 936 6.505208332261367E-1
939 937 -1.953124999845311E-1
939 938 -4.6874999989489685E-2
939 939 2.5014689625991185E1
939 940 -3.212691326562326
939 941 -1.7071189489125722E-15
939 942 -1.3095238095339367E1
939 943 2.872787575583109E-15
940 886 -3.124999999978643E-1
940 887 6.271258503138702E-1
940 888 -5.164115645742309E-1
940 889 3.1249999999786465E-1
940 890 -3.7202380952159053E-1
940 891 -1.7101190473995538
940 894 2.734374999973097E-1
940 895 1.4601934524112359
940 896 -3.95290178576534
940 917 -5.468750000031372E-1
940 918 1.6927083333433428
940 919 -2.2748958333463943E1
940 935 3.9062499996904726E-2
940 936 -1.9531249998453154E-1
940 937 1.5880208331826076
940 938 2.3437500000892814E-1
940 939 -3.212691326562326
940 940 3.257846513615634E1
940 941 -6.6555584541265005E-15
940 942 -8.950745639212743E-16
940 943 -5.238095238135884
941 788 -9.991054946440976E-2
941 789 9.706959706981513E-1
941 795 2.158115700575166
941 796 -7.623353364412941E-1
941 811 1.0822812453095773E-1
941 812 -2.847925759352064E-1
941 813 -3.417310365380436E-1
941 886 8.829945089765351E-1
941 887 -6.470287757525852E-1
941 888 -1.0439560439585363
941 889 -3.2288783401212005
941 890 -1.3699441100911236E-1
941 891 1.9249601294717222E-1
941 894 -4.197998779459026
941 895 3.391084179177032E-1
941 896 1.2704857454435579
941 917 -8.614583333513496
941 918 2.1875000000125258E-1
941 919 -8.85416666674351E-1
941 935 5.270833333423869
941 936 4.3749999999330924E-1
941 937 3.125000000027318E-1
941 938 -5.238095238135786
941 939 -1.7071189489125722E-15
941 940 -6.6555584541265005E-15
941 941 2.531077142567821E1
941 942 1.3080242930560337E-1
941 943 -8.169824350385846E-2
941 944 -5.381093144500377
941 945 -7.073453181929571E-1
941 946 2.9244663128995374E-1
941 955 2.364796182715289E-1
941 957 4.2995051512901433E-1
941 958 -6.9703837079904485
941 959 -1.6429899728549024E-2
941 960 7.651296673452254E-2
942 788 2.364796182715292E-1
942 789 -7.907509157515596E-1
942 795 4.299505151290156E-1
942 796 1.6156069861391469
942 811 -2.847925759352064E-1
942 812 -1.7130430563784815
942 813 -9.32543708516906E-1
942 886 -6.47028775752587E-1
942 887 1.8458754897029368
942 888 -5.995879120777509E-1
942 889 -1.3699441100911275E-1
942 890 -3.712513958508722
942 891 -3.498427021292191E-1
942 894 3.3910841791770374E-1
942 895 -3.3257191854332593
942 896 -2.3187748810489732
942 917 2.1875000000125316E-1
942 918 -9.66458333351952
942 919 4.427083333371789
942 935 4.374999999933101E-1
942 936 5.67083333348671
942 937 -1.5625000000136549
942 938 -3.3827863024304708E-15
942 939 -1.3095238095339367E1
942 940 -8.950745639212743E-16
942 941 1.3080242930560337E-1
942 942 3.4637646520434615E1
942 943 -3.504465801171825
942 944 -7.073453181929575E-1
942 945 -5.247374078742565
942 946 1.514591301136265
942 955 6.900104335625118E-2
942 957 2.758917792513749
942 958 -1.642989972854874E-2
942 959 -8.223802471572355
942 960 2.5011843000626888
943 788 4.8534798534907403E-1
943 789 -8.831287459462255E-3
943 795 -7.623353364412933E-1
943 796 5.18144262312128
943 811 -1.333977032032838E-1
943 812 1.0912295814264728E-1
943 813 1.6334626148407372
943 886 -1.0439560439585371
943 887 -5.995879120777489E-1
943 888 6.622793935376111E-1
943 889 -2.2417065371949738E-1
943 890 -9.450807973630838E-1
943 891 -4.260206850149957
943 894 1.2704857454435579
943 895 -2.3187748810489683
943 896 -1.1062078966547405E1
943 917 -6.770833333424422E-1
943 918 3.3854166667122296
943 919 -2.0289583333776587E1
943 935 3.1250000000273215E-1
943 936 -1.5625000000136542
943 937 1.3170833333490803E1
943 938 -6.318765199184362E-15
943 939 2.872787575583109E-15
943 940 -5.238095238135884
943 941 -8.169824350385846E-2
943 942 -3.504465801171825
943 943 4.702116784058118E1
943 944 7.777946166390334E-1
943 945 1.7144539384943525
943 946 -1.0623062713349505E1
943 955 -3.953754578757812E-1
943 957 1.6156069861391447
943 958 7.651296673452007E-2
943 959 2.5011843000626857
943 960 -1.6187327416152822E1
944 790 2.5729294106401452
944 791 4.012275376842709E-1
944 792 6.550834962332759E-1
944 811 -2.0660280226521532
944 812 4.419700678607935E-1
944 813 -4.013424424193973E-2
944 850 7.732345779235863E-1
944 851 -5.170454545471529E-1
944 852 -2.2490530304132872E-1
944 894 -3.113213445803043
944 895 -3.9379591791716406E-1
944 896 -9.970482454462479E-1
944 897 -7.332217261973914
944 898 4.1927083333452214E-1
944 899 1.5494791666697092
944 906 -1.117261447912984E1
944 907 2.2727272726969738E-1
944 908 -9.943181818223016E-1
944 909 1.2964015151026511
944 910 -5.606060606032468E-1
944 911 2.452651515155773
944 917 3.831101190563883
944 918 -1.0937500000062725E-1
944 919 4.4270833333718135E-1
944 920 -5.547061012129468
944 921 2.4609375000140904E-1
944 922 -9.179687500091145E-1
944 932 5.270833333538832
944 933 4.374999999921936E-1
944 934 3.125000000093861E-1
944 935 -5.254464285779232
944 936 -2.187499999966506E-1
944 937 -1.5625000000136885E-1
944 941 -5.381093144500377
944 942 -7.073453181929575E-1
944 943 7.777946166390334E-1
944 944 3.0205534706964684E1
944 945 5.437025052637889E-2
944 946 1.0391926844105785
944 947 -5.934895833604255
944 948 8.072916667081309E-2
944 949 -1.8098958333321284
944 958 1.851552750838502
944 959 1.9848341791772045E-1
944 960 -2.0888892545605082
945 790 4.01227537684271E-1
945 791 2.051464959873771
945 792 -7.86229867627678E-2
945 811 4.4197006786079346E-1
945 812 -1.746723636144261
945 813 -7.366894294359805E-1
945 850 -5.17045454547153E-1
945 851 -3.6572646101063594E-1
945 852 -1.3105384198956083
945 894 -3.937959179171633E-1
945 895 -3.0087073255419616
945 896 -2.6198411903407948
945 897 4.1927083333452153E-1
945 898 -7.2018601190936105
945 899 -2.8366815475848837
945 906 2.272727272696979E-1
945 907 -1.2072125359356715E1
945 908 4.144423758037725
945 909 -5.606060606032474E-1
945 910 1.8054924241986385
945 911 8.049242424103522E-1
945 917 -1.0937500000062719E-1
945 918 3.6418154762774764
945 919 1.6741071424955756E-1
945 920 2.4609375000140887E-1
945 921 -6.371168154991517
945 922 3.3993675595778132
945 932 4.3749999999219297E-1
945 933 5.670833333607018
945 934 -1.5625000000469194
945 935 -2.1874999999664987E-1
945 936 -9.383035714411562
945 937 7.812500000068157E-1
945 941 -7.073453181929571E-1
945 942 -5.247374078742565
945 943 1.7144539384943525
945 944 5.437025052637889E-2
945 945 3.436025817300178E1
945 946 -3.4809022096521756
945 947 8.072916667081266E-2
945 948 -5.022395833631213
945 949 7.161458334469987E-1
945 958 1.9848341791772028E-1
945 959 2.889252315965368
945 960 8.977997374955149E-1
946 790 3.070981482490223E-1
946 791 7.164777458441502E-1
946 792 6.179900643772744
946 811 -7.693009109093178E-1
946 812 -6.622846675244085E-1
946 813 -2.8339235113015793
946 850 2.9592803029407266E-1
946 851 -3.4327651514729435E-1
946 852 2.749888392830778
946 894 -9.970482454462495E-1
946 895 -2.619841190340797
946 896 -8.24195606089413
946 897 1.5494791666697085
946 898 -2.836681547584889
946 899 -1.808355654781401E1
946 906 -9.943181818223017E-1
946 907 4.144423758037723
946 908 -2.794377055960941E1
946 909 2.4526515151557726
946 910 8.049242424103513E-1
946 911 2.636458333205142
946 917 3.385416666712264E-1
946 918 -5.022321428884007E-1
946 919 9.66860119069555
946 920 -6.054687500111815E-1
946 921 2.4321056548220223
946 922 -1.282206101246035E1
946 932 3.125000000093877E-1
946 933 -1.5625000000469191
946 934 1.317083333377188E1
946 935 -1.5625000000136857E-1
946 936 7.81250000006819E-1
946 937 -9.204464285812742
946 941 2.9244663128995374E-1
946 942 1.514591301136265
946 943 -1.0623062713349505E1
946 944 1.0391926844105785
946 945 -3.4809022096521756
946 946 6.069717895533812E1
946 947 -9.765624999987959E-1
946 948 7.161458334320372E-1
946 949 -9.827083333934793
946 958 -2.0888892545605073
946 959 8.977997374955156E-1
946 960 4.477017175562316
947 847 1.2340029762270652
947 848 -4.375000000036088E-1
947 849 -1.302083333466333E-1
947 850 1.1055059523920658
947 851 5.250000000023431E-1
947 852 3.12500000145336E-2
947 897 1.8593749999299718
947 898 -4.7395833331311193E-1
947 899 -1.2760416666471006
947 900 -1.1344246030677025
947 901 1.2500000003834977E-1
947 902 6.250000000302791E-1
947 909 -1.6088293650724868E1
947 910 3.3333333330479437E-1
947 911 -1.4583333333650057
947 912 7.22151360524885E-1
947 913 -1.964285714290161E-1
947 914 1.8303571428624987
947 920 3.1424851191932346
947 921 -1.6406250000090356E-1
947 922 6.119791666726083E-1
947 923 -4.065476190693462
947 924 2.916666666680019E-1
947 925 -1.0416666666754089
947 929 3.6836734696279327
947 930 6.428571428482222E-1
947 931 7.142857143107766E-1
947 932 -9.519179894499064
947 933 -2.916666667351615E-1
947 934 -2.0833333343174468E-1
947 944 -5.934895833604255
947 945 8.072916667081266E-2
947 946 -9.765624999987959E-1
947 947 2.9273722128276404E1
947 948 2.5297619467747473E-3
947 949 2.3980654762619045
947 950 -4.278645833582215
947 951 -4.3749999999749684E-1
947 952 -1.1197916666879104
948 847 -4.3750000000360867E-1
948 848 4.7686011911912185E-1
948 849 5.580357143965298E-2
948 850 5.250000000023427E-1
948 851 8.712202380785186E-1
948 852 3.199404761616194E-1
948 897 -4.73958333313112E-1
948 898 2.134374999949039
948 899 -1.4322916667399244
948 900 1.2500000003834957E-1
948 901 -1.8153769840848863
948 902 -2.0089285713966607
948 909 3.3333333330479376E-1
948 910 -1.6926388888793596E1
948 911 2.827380952341679
948 912 -1.964285714290149E-1
948 913 2.187457482960883
948 914 1.371173469468637
948 920 -1.6406250000090372E-1
948 921 2.8585565477627504
948 922 5.115327380440251E-1
948 923 2.916666666680019E-1
948 924 -4.751190476410762
948 925 2.8273809524415823
948 929 6.428571428482222E-1
948 930 3.881632653349263
948 931 -5.102040816487308E-1
948 932 -2.9166666673516195E-1
948 933 -1.0373148148441691E1
948 934 -1.3392857142555872
948 944 8.072916667081309E-2
948 945 -5.022395833631213
948 946 7.161458334320372E-1
948 947 2.5297619467747473E-3
948 948 3.0771329838014932E1
948 949 -2.389987244934774
948 950 -4.374999999974969E-1
948 951 -4.292931547872354
948 952 -9.486607143535565E-1
949 847 2.8645833332210036E-1
949 848 9.486607142799522E-1
949 849 3.4484002976723582
949 850 -5.937499999868897E-1
949 851 1.0639880952241794
949 852 3.4705505952958253
949 897 -1.276041666647101
949 898 -1.4322916667399257
949 899 1.9781249999244868
949 900 6.250000000302793E-1
949 901 -2.008928571396661
949 902 -6.223859126997382
949 909 -1.458333333365007
949 910 2.827380952341681
949 911 -3.6457638888642755E1
949 912 1.8303571428624987
949 913 1.3711734694686406
949 914 6.775722788623834E-1
949 920 4.036458333406989E-1
949 921 -2.3251488099995743E-1
949 922 7.992485119412756
949 923 -6.250000000108098E-1
949 924 1.9345238095863206
949 925 -9.215476191015153
949 929 7.142857143107761E-1
949 930 -5.102040816487314E-1
949 931 1.036122449031841E1
949 932 -2.083333334317434E-1
949 933 -1.3392857142555867
949 934 -1.6206481481933626E1
949 944 -1.8098958333321284
949 945 7.161458334469987E-1
949 946 -9.827083333934793
949 947 2.3980654762619045
949 948 -2.389987244934774
949 949 5.612826011069302E1
949 950 -2.8645833335457677E-1
949 951 -9.486607143721363E-1
949 952 -6.126078869655534
950 587 -3.005952380221417E-1
950 653 7.221513605635318E-1
950 663 3.1901041638646224E-2
950 681 -2.439360119038486
950 686 3.1249999999121186E-1
950 847 -1.3554997519924725
950 848 4.010416666729627E-1
950 849 1.6276041667951185E-1
950 909 1.7802579365519755
950 910 3.33333333326917E-1
950 911 -1.5624999999979345
950 912 -1.716269841263067E1
950 913 -3.33333333329746E-1
950 914 -2.0681697095644336E-12
950 915 1.9642857142812556E-1
950 916 1.8303571428517895
950 923 2.453869047774289
950 924 -2.1875000000063946E-1
950 925 7.812500000052633E-1
950 926 6.406249999985532E-1
950 927 -6.315104166706694E-1
950 929 -3.417517006952846
950 930 -3.9285714284921164E-1
950 931 -5.357142857016906E-1
950 947 -4.278645833582215
950 948 -4.374999999974969E-1
950 949 -2.8645833335457677E-1
950 950 2.3966136975690386E1
950 951 5.610119047377887E-1
950 952 2.678571428677091E-1
950 953 -3.1249999998267997E-1
950 954 -3.385416666685471E-1
950 956 -4.3750000000457323E-1
951 587 -4.37500000004574E-1
951 653 1.9642857142812678E-1
951 663 6.406249999985535E-1
951 681 -3.124999999826799E-1
951 686 8.184523809176044E-1
951 847 4.010416666729629E-1
951 848 -2.5376426091620714
951 849 5.254836309120039E-1
951 909 3.3333333332691817E-1
951 910 3.380257936521171
951 911 6.696428572387018E-1
951 912 -3.333333333297488E-1
951 913 -1.9662698412599855E1
951 914 2.4553571426905334
951 915 2.1874574830254767
951 916 -1.3711734693068687
951 923 -2.187500000006397E-1
951 924 2.0752976192002617
951 925 8.55654761856943E-1
951 926 -3.8595610119821044E-1
951 927 1.5950520833579613
951 929 -3.9285714284921125E-1
951 930 -4.548129251872779
951 931 -3.50765306123239
951 947 -4.3749999999749684E-1
951 948 -4.292931547872354
951 949 -9.486607143721363E-1
951 950 5.610119047377887E-1
951 951 2.7381443098114943E1
951 952 -1.5943877548790304
951 953 -2.5393601190371053
951 954 5.022321428166763E-1
951 956 -1.057738095119479
952 587 6.249999999932796E-1
952 653 1.8303571428517897
952 663 -1.1067708333940363E-1
952 681 4.9479166666478525E-1
952 686 -3.880952379621329E-1
952 847 -3.580729166558887E-1
952 848 1.3439360118815806
952 849 -1.583169022810106
952 909 -1.562499999997935
952 910 6.69642857238699E-1
952 911 2.550644841416516
952 912 -2.0671890125593494E-12
952 913 2.4553571426905347
952 914 -3.993799603161327E1
952 915 -1.371173469306866
952 916 6.775722789607113E-1
952 923 4.687500000073316E-1
952 924 3.7202380904969856E-2
952 925 6.316369048009175
952 926 7.765997024051644E-1
952 927 1.580422246960447
952 929 -5.357142857016912E-1
952 930 -3.507653061232392
952 931 -8.425680272486272
952 947 -1.1197916666879104
952 948 -9.486607143535565E-1
952 949 -6.126078869655534
952 950 2.678571428677091E-1
952 951 -1.5943877548790304
952 952 4.756566131676249E1
952 953 5.022321427990711E-1
952 954 -2.229650297582035
952 956 1.636904761851824
953 578 2.499999999890981E-1
953 579 -4.7727272727248143E-1
953 580 -3.054599567057364
953 581 2.516233766245798
953 584 -4.3750000000498185E-1
953 585 -1.0577380951114397
953 586 -1.488095238030867
953 587 9.166666666824747E-1
953 640 2.6785714285506725
953 653 -3.3333333335932175E-1
953 654 5.606060606066917E-1
953 655 1.8054924242379027
953 656 -8.049242424205122E-1
953 663 -4.3750000001863965E-1
953 664 4.083333333209679E-1
953 665 -1.4907142857614195
953 666 9.672619047954715E-1
953 676 4.018153865192886E-11
953 677 -1.42857142858568
953 681 6.136363633666313E-2
953 682 -1.9886363634887333E-1
953 683 -2.0335497836667635E-1
953 684 -1.4204545454403833E-1
953 686 -1.7857142857913617
953 892 -1.7011904760914016
953 912 1.0899545155318435E-11
953 913 2.6723214285290418
953 914 -6.696428570866668E-1
953 915 -1.6926388888965107E1
953 916 -2.827380952421012
953 926 -1.496279761629886E-1
953 927 6.138392856711543E-1
953 928 1.3365079364725447
953 950 -3.1249999998267997E-1
953 951 -2.5393601190371053
953 952 5.022321427990711E-1
953 953 2.5368176407023363E1
953 954 1.8682359308179692
953 956 -4.059523809709347
954 578 -1.2500000000307647
954 579 1.8181818181773277
954 580 2.516233766245797
954 581 -6.084226190470887
954 584 -2.083333333420462E-1
954 585 -7.440476189972138E-1
954 586 -3.880952379713087E-1
954 587 4.1666666672009206E-1
954 640 -5.227976190162986
954 653 -1.4583333333048425
954 654 2.4526515151527106
954 655 -8.049242424205131E-1
954 656 2.636458333302169
954 663 -2.8645833331675186E-1
954 664 8.3333333351642E-2
954 665 2.2321428574421837E-1
954 666 -3.880357143817037E-1
954 676 -5.023359506139968E-11
954 677 3.407936507883269
954 681 1.1382575756767588
954 682 -8.049242424023143E-1
954 683 -1.4204545455792092E-1
954 684 -1.2827380952793396E-1
954 686 -1.8571428574076156
954 892 2.6785714285506748
954 912 -1.5624999999630331
954 913 -6.696428570866699E-1
954 914 2.0808035713616553
954 915 -2.827380952421012
954 916 -3.645763888908606E1
954 926 -2.790178571878711E-1
954 927 1.8509300595924651
954 928 -1.4285714285856823
954 950 -3.385416666685471E-1
954 951 5.022321428166763E-1
954 952 -2.229650297582035
954 953 1.8682359308179692
954 954 4.278491071445099E1
954 956 -8.928571429184535E-1
955 767 -4.2124542123887596E-2
955 768 -3.7119581586146716E-1
955 769 3.9537545787578215E-1
955 788 2.2132932738315766E-1
955 789 -1.915134717478395E-14
955 795 9.227667869777504E-17
955 796 4.855343220085731E-15
955 811 -3.11517736863705E-1
955 812 -4.421795253621667E-1
955 813 5.20833333329777E-1
955 889 -1.0416666666709408E-1
955 890 -4.9583333332967916E-1
955 891 -5.208333333297633E-1
955 941 2.364796182715289E-1
955 942 6.900104335625118E-2
955 943 -3.953754578757812E-1
955 955 1.4226127960851942E1
955 957 -1.2985920329654881E1
956 578 1.1123436708912453E-2
956 579 2.500000000034706E-1
956 580 9.640466967008909E-1
956 581 -1.157741196448295
956 584 5.022941630740166E-1
956 585 -7.156599672968844E-2
956 586 1.253722176333514
956 587 -3.7083332855219636E-1
956 594 1.8341258475633184
956 595 -1.0830901858598228E1
956 596 2.811943013894599
956 607 -1.8217557237467343
956 608 1.3521827870886316
956 609 -3.1732377075801352
956 622 -1.7083840019610181
956 623 -1.7541965217518847
956 624 1.0053061095579998
956 625 2.101192076581416E-1
956 626 -2.9625773877212933
956 627 1.6420223488191357
956 640 -4.012042599539717E-2
956 681 9.166666666824742E-1
956 686 -5.31697033183022E-1
956 847 -4.338286400451498E-1
956 848 -8.68283863764669E-1
956 849 1.0678906661853994E-1
956 865 -1.7545897733287723
956 866 -7.34071992642776
956 867 1.4144523601384775
956 880 1.5564326007006304
956 881 -2.627753590525797E-1
956 882 -1.9454684371937694
956 883 1.496129545258382
956 884 -3.635589513442114E-2
956 885 3.253392488812384E-1
956 892 -3.459453615287876E1
956 912 -2.5000000001090134E-1
956 913 5.309523810011603E-1
956 914 -2.4553571427762564
956 950 -4.3750000000457323E-1
956 951 -1.057738095119479
956 952 1.636904761851824
956 953 -4.059523809709347
956 954 -8.928571429184535E-1
956 956 6.099199300209742E1
957 764 -3.7784475602335194E-2
957 765 -2.8293347535878977
957 766 2.529613699781321E-1
957 767 1.2454212454277994E-1
957 768 -2.2450598764352817E-1
957 769 -1.1861263736273346
957 783 -1.7980470072338109E-16
957 784 -1.42223887215265E-15
957 785 -4.2995051512987703E-1
957 786 2.7589177924997865
957 787 1.6156069861354456
957 788 -5.500215738885126E-18
957 789 2.9660815655736368E-15
957 795 -4.7363779565046116E-12
957 796 2.8916370465450636
957 811 -5.922771152733313E-1
957 812 -4.3369260632311954
957 813 -2.128260505748637
957 886 -1.2454212454162604E-1
957 887 -2.245059876416018E-1
957 888 -1.1861263736238539
957 889 3.7784475603905035E-2
957 890 -2.8293347536111546
957 891 2.529613699642921E-1
957 893 -1.2985920329610522E1
957 941 4.2995051512901433E-1
957 942 2.758917792513749
957 943 1.6156069861391447
957 955 -1.2985920329654881E1
957 957 3.523553868325403E1
957 958 5.922771152762063E-1
957 959 -4.336926063286793
957 960 -2.128260505762254
958 783 -7.465953483758119E-1
958 784 -1.4583333333347623
958 785 1.0822812451318048E-1
958 786 2.8479257593826834E-1
958 787 1.333977032007046E-1
958 795 -4.59933210894463
958 796 2.336385576381315
958 811 -7.700325890593295
958 812 -1.9234732661795946E-12
958 813 -8.48232240642942E-13
958 886 -1.467260501512391
958 887 -3.063170441021654E-1
958 888 -5.208333333354722E-1
958 889 2.8420371880067683
958 890 -4.781920758253507E-1
958 891 8.441834996361803E-1
958 893 3.1151773686480055E-1
958 894 -2.8548137790342714
958 895 8.548757454197689E-1
958 896 1.3931716012581878
958 906 -2.0660280226947076
958 907 -4.4197006785500614E-1
958 908 7.693009109294848E-1
958 941 -6.9703837079904485
958 942 -1.642989972854874E-2
958 943 7.651296673452007E-2
958 944 1.851552750838502
958 945 1.9848341791772028E-1
958 946 -2.0888892545605073
958 957 5.922771152762063E-1
958 958 2.16029212957871E1
958 959 -9.990375039037696E-1
958 960 -1.4848963369088017
959 783 3.115177368648003E-1
959 784 1.0416666666595493
959 785 2.847925759382679E-1
959 786 -1.713043056405505
959 787 1.0912295814572015E-1
959 795 5.92277115276206E-1
959 796 -2.128260505762256
959 811 -1.923962439207229E-12
959 812 -8.441096936600129
959 813 -4.3639362864961635
959 886 -3.06317044102165E-1
959 887 -2.3337912711107522
959 888 -1.010994282577688
959 889 -4.781920758253501E-1
959 890 3.6673244096397237
959 891 2.029082501819095
959 893 -4.421795253668979E-1
959 894 8.548757454197686E-1
959 895 -4.273162354135822
959 896 -2.5356433281402233
959 906 -4.419700678550054E-1
959 907 -1.7467236361805067
959 908 -6.622846675380056E-1
959 941 -1.6429899728549024E-2
959 942 -8.223802471572355
959 943 2.5011843000626857
959 944 1.9848341791772045E-1
959 945 2.889252315965368
959 946 8.977997374955156E-1
959 957 -4.336926063286793
959 958 -9.990375039037696E-1
959 959 2.495414858905367E1
959 960 4.122262906331771
960 783 -7.291666666673845E-1
960 784 -3.396499639265316E-1
960 785 3.417310365354612E-1
960 786 -9.325437085138285E-1
960 787 1.6334626148148113
960 795 2.336385576381315
960 796 -7.528150145287798
960 811 -8.481014348063785E-13
960 812 -4.36393628649617
960 813 -2.0076855511954435E1
960 886 -1.0416666666880586E-1
960 887 -4.157561873438248E-1
960 888 -1.0508727028568399
960 889 8.441834996361781E-1
960 890 2.0290825018190946
960 891 4.85927653966187
960 893 5.208333333297758E-1
960 894 7.681716012567664E-1
960 895 -1.4939766614806724
960 896 -4.207918516992549
960 906 4.013424426210649E-2
960 907 -7.366894294420963E-1
960 908 -2.8339235113952417
960 941 7.651296673452254E-2
960 942 2.5011843000626888
960 943 -1.6187327416152822E1
960 944 -2.0888892545605082
960 945 8.977997374955149E-1
960 946 4.477017175562316
960 957 -2.128260505762254
960 958 -1.4848963369088017
960 959 4.122262906331771
960 960 4.125494143852722E1
