%%MatrixMarket matrix coordinate real general
%Reordered K matrix using quantum partitioning with k=32
960 960 30282
1 1 2.9793400904004866E1
1 2 -5.80377176006893
1 24 -9.002445333275862
1 25 5.385201135382451
1 26 -1.510651639442243E-1
1 27 -2.268465773857962
1 28 -2.1891966550765223
1 29 -5.968118259012531E-1
1 32 9.470223583058497E-1
1 36 -2.033515395557174
1 37 3.5461793616254306E-1
1 38 1.4248086297714704E-1
1 51 -3.681107898112391E-1
1 74 -2.2198322537817723
1 75 -2.95573615120875
1 94 -6.7757734152648315
1 95 1.0906155797472021
1 96 2.673700552078635
1 109 -4.0676956970010314E-1
1 110 2.498449318653362
1 111 1.9277178971827025
1 177 -4.634174426935508
1 178 2.097277233953394
1 179 1.2792489754479681
1 180 -4.214970156858038
1 181 1.2592277431139878
1 202 -2.168525390033863
1 203 1.322879728194689
1 229 -1.5403530064858428
1 230 -3.442323157442923
2 1 -5.80377176006893
2 2 3.299937140421781E1
2 24 5.3852011353824505
2 25 -1.7403389732202942E1
2 26 3.730818725691412
2 27 1.7644998165348635E-1
2 28 5.972656195146164E-1
2 29 -1.6428127543590887E-1
2 32 7.273453178206965E-2
2 36 -1.1612965953422322E-1
2 37 -6.146102365601935E-1
2 38 -2.5308430951094576
2 51 5.736288517319577E-1
2 74 2.9965169531894515
2 75 4.8566858459140433E-1
2 94 1.628690455764675
2 95 -3.1990092065297504E-1
2 96 -2.860157400133833
2 109 -3.4423231574429245
2 110 -2.2198322537817714
2 111 2.193989751006246
2 177 1.5509972642071888
2 178 -4.536634125490214
2 179 -7.686186683408339
2 180 2.355049409228644
2 181 -9.034316563482241E-1
2 202 1.0993859301684683
2 203 -1.314922314096268
2 229 -2.796678127191387
2 230 -3.132676200672294
3 3 2.744395890164534E1
3 4 4.099204255436055
3 5 -1.923140484089906
3 6 -1.9757318059837856
3 7 5.970461705623895E-1
3 15 1.693393998046307E-1
3 16 -3.7433881976152167E-1
3 24 -9.169210212201682
3 25 -3.168252302718746
3 46 8.548074532958909E-1
3 51 1.0330803255370586
3 69 -6.2580425103144846
3 70 2.2297683595029927
3 71 -1.907295562971556E-1
3 109 1.3315590572165559
3 128 -2.9665396506705646
3 167 -1.8940882360059557
3 185 -4.866880632432249
3 186 2.04833496615014
3 187 -1.3805674883664119
3 188 -3.7610438689576373
3 189 8.54807453286856E-1
3 190 -1.2592277431139867
3 204 -2.1709331843960893
3 205 -1.3287390182963912
3 229 -9.800453313871069E-1
3 230 3.0056045025557685
4 3 4.099204255436055
4 4 3.1514978366119138E1
4 5 -1.7540021667426842E-1
4 6 -5.970461705618304E-1
4 7 1.534256855521332E-1
4 15 -1.1775059464417267E-1
4 16 4.59956619813623E-1
4 24 -3.168252302718747
4 25 -1.8240101928432807E1
4 46 -6.375429830456593E-1
4 51 -1.8861664768192463
4 69 8.534651196987239E-1
4 70 -4.2009540589729666E-1
4 71 -2.715917386492248
4 109 3.0056045025557685
4 128 -4.8950557729908534E-1
4 167 -1.587314435328385
4 185 -1.6523157771256318
4 186 4.512753112081964
4 187 -8.030619657764472
4 188 -2.3550494092286427
4 189 -7.273453178207034E-2
4 190 -7.067118638035859E-1
4 204 -1.1011899144419266
4 205 -1.321389989311587
4 229 1.7893368057944499
4 230 -1.1136198456801942
5 3 -1.923140484089906
5 4 -1.7540021667426842E-1
5 5 2.1495264465536422E1
5 6 -4.2776410010560145E-1
5 7 3.734089062826129E-3
5 8 -1.6371366171487054
5 9 -1.970233241071711
5 12 -2.3614273236469816
5 13 1.072555656358884
5 14 4.316930674674447E-1
5 15 -3.1997609536113996
5 16 -4.1331697456144456E-1
5 24 -3.662502923001092
5 25 3.522948889256087
5 46 1.128951065060268
5 49 -1.3800097686012397E-3
5 50 -3.342649731633453
5 51 1.454446104671774E-3
5 167 -1.9757318059837852
5 188 -2.3678392017031236
5 189 1.3936272431094423
5 190 -3.444380551691089E-1
5 281 -1.3914198027575175E-1
5 297 -3.538879071079835
5 298 4.5657091252766896E-1
5 306 -2.8045778912553785
5 365 7.785207462964323E-1
6 3 -1.9757318059837856
6 4 -5.970461705618304E-1
6 5 -4.2776410010560145E-1
6 6 2.51304849578495E1
6 7 4.3518126984413324E-1
6 8 -1.970233241071711
6 9 -1.6371366171356796
6 12 1.0725556563588843
6 13 -7.698834812850928
6 14 -2.2217893176703614
6 15 1.1289510650602683
6 16 4.672239609129222E-1
6 24 1.454446104672202E-3
6 25 9.6675677647014E-1
6 46 -8.547142194807644E-2
6 49 -2.6546805238250077
6 50 -9.172796373168831E-1
6 51 -3.8204856033560497
6 167 -1.9231404840947608
6 188 1.3936272431094412
6 189 -7.432266448258705
6 190 1.727492426561816
6 281 3.688805845858607E-1
6 297 7.78520746296433E-1
6 298 -2.2941989282579642E-1
6 306 -1.380009768601441E-3
6 365 1.2153095361970667E-1
7 3 5.970461705623895E-1
7 4 1.534256855521332E-1
7 5 3.734089062826129E-3
7 6 4.3518126984413324E-1
7 7 2.3080059748944826E1
7 8 -8.317907519407886E-1
7 9 -3.237681870760756E-1
7 12 6.374983914632302E-1
7 13 -3.20004102890358
7 14 -4.166866690450322
7 15 5.876974225779021E-1
7 16 2.974282418978105E-1
7 24 3.522948889256085
7 25 -8.266451856321675
7 46 1.5885833544055344E-1
7 49 -9.172796373168827E-1
7 50 -7.855711291774116
7 51 9.667567764701402E-1
7 167 1.7540021667604655E-1
7 188 -6.528036806434185E-1
7 189 2.72850682369612
7 190 -3.400621412440025
7 281 1.3217065683999374E-1
7 297 -5.216807987047758E-1
7 298 2.6566917751372265E-2
7 306 -3.3426497316334514
7 365 -2.361456883045493E-2
8 5 -1.6371366171487054
8 6 -1.970233241071711
8 7 -8.317907519407886E-1
8 8 2.905098580361314E1
8 9 3.761674324238966E-1
8 10 -1.3271370952183907
8 12 -9.49047947284466
8 13 2.1720492152236298E-1
8 14 -2.1003958544826162E-1
8 19 -3.16706077456053
8 20 -1.090025658961212E-1
8 21 -3.309805400485244E-2
8 22 2.275613680949751
8 23 2.064589104674589
8 48 2.1345956118278737
8 49 -1.454586733270598
8 50 2.1550243341953066
8 281 9.132102884175921E-1
8 297 -3.988231705236264
8 298 -3.4586019243228877E-1
8 299 3.658568370102858E-1
8 300 -6.740232743277859
8 301 -6.78416871811878E-1
8 302 -4.218073643808525
8 306 -1.1251986162786962
8 338 -3.8511224599977885
8 365 2.4252981824765443
8 560 -1.9167707150639757
8 561 1.4018166333694304E-1
8 580 9.757439788636062E-1
9 5 -1.970233241071711
9 6 -1.6371366171356796
9 7 -3.237681870760756E-1
9 8 3.761674324238966E-1
9 9 2.7802378914401196E1
9 10 -1.9167707150639743
9 12 2.1720492152236226E-1
9 13 -3.435918556912048
9 14 1.5129238673465958E-1
9 19 -1.0900256589612113E-1
9 20 -8.776173373334192
9 21 3.795020288229145E-1
9 22 2.1345956118278746
9 23 -1.842552931722948
9 48 1.851076065371094
9 49 -3.0948300818003185
9 50 3.122783343296695
9 281 -4.898980356835242E-1
9 297 2.4252981824765447
9 298 1.7882863672531724E-1
9 299 -3.9696328906382045E-1
9 300 -6.7841687181188E-1
9 301 -4.346380287370627
9 302 -1.2816046094217157
9 306 -1.4545867332705968
9 338 9.757439788636056E-1
9 365 -6.805627550560873
9 560 -1.3271370952183907
9 561 5.023806573884972E-1
9 580 -2.3025141744016253E-1
10 8 -1.3271370952183907
10 9 -1.9167707150639743
10 10 2.554086267253644E1
10 19 -8.505832950600329
10 20 1.5213549122419976
10 21 1.8743591211705575
10 281 -5.023806573884962E-1
10 299 3.825423588008307E-1
10 300 -2.6391264701201362
10 301 -6.575422064338571E-2
10 302 9.027776229069748E-1
10 327 -7.509630412072934
10 328 1.7305804748371416
10 338 -3.341339025518348E-1
10 560 -1.3388735237643188
10 561 9.756360372367961E-2
10 562 -2.002367602770824
10 563 -2.09760150085886
10 564 5.912003261586295E-1
10 570 -3.831490913888502E-2
10 571 1.1787641523737307
10 572 -4.568974405111902E-1
10 579 -2.004381083761072
10 580 9.238567848252032E-1
10 583 -3.184319330063112
10 584 6.444363605246635E-2
10 585 -8.847838510999135E-1
11 11 2.607974434689567E1
11 22 -3.561512379531001
11 23 -9.76341342944223
11 30 -3.648580423014842E-1
11 31 -1.873534966664952
11 33 -4.242240912949784E-1
11 34 -1.6181955048760144E-1
11 35 -1.4498535613209546E-2
11 42 3.5832416091202433
11 43 5.092192825260196E-1
11 44 -1.2782383826555268
11 45 3.9601331825306013E-1
11 48 -2.2247494466401125
11 278 3.563914917209626E-2
11 279 -3.3457963309407903
11 280 -3.903871087185023
11 300 1.8359929808842121
11 301 -2.498381594071404
11 302 8.472241592260001E-1
11 551 5.021837096343654E-1
11 568 -4.7007423245944047E-1
11 569 -2.752777647471478
11 583 2.947863559682969
11 584 1.131807313533138
11 585 -1.4292873503963857
11 608 -8.595437518727908E-1
11 722 3.6628376320466305E-1
11 723 -5.117065950487509E-2
11 724 -6.576964971279617E-2
11 728 -3.0607678738107107
11 738 -1.161437009458283
11 739 3.6212994209316847
11 740 -2.590786601549048
12 5 -2.3614273236469816
12 6 1.0725556563588843
12 7 6.374983914632302E-1
12 8 -9.49047947284466
12 9 2.1720492152236226E-1
12 12 3.58516255543849E1
12 13 -1.6919049329355196
12 14 -4.055033954189779
12 15 -1.3078268751263263E1
12 16 1.7429046957978684
12 17 -3.5527978193503045
12 18 7.528355128783741E-1
12 19 -1.612808275010393
12 20 -1.9091909779141472
12 21 4.287178558822229E-1
12 22 -1.0816247423556694E1
12 23 1.356744631768775
12 24 3.889429972707158
12 25 1.0918729839407275
12 46 2.502975997883385E-1
12 47 1.5872575731636036
12 48 6.208908793627932E-1
12 49 1.8576582714841665
12 50 -2.391725343396961
12 51 -2.61175154883117
12 281 7.362415749136553E-1
12 306 1.7762102682129914
12 735 -3.000563490581145E-1
12 957 -6.052367296327474E-1
12 958 6.069825580006881E-1
13 5 1.072555656358884
13 6 -7.698834812850928
13 7 -3.20004102890358
13 8 2.1720492152236298E-1
13 9 -3.435918556912048
13 12 -1.6919049329355196
13 13 3.1044231096290286E1
13 14 4.299196289700767
13 15 2.5029759978833865E-1
13 16 -6.529790335033043E-1
13 17 1.587257573163602
13 18 -9.251366637141316E-1
13 19 -1.9091909779141465
13 20 -1.161693781866286
13 21 1.5707547903532726E-1
13 22 6.208908793627937E-1
13 23 -4.227444782440797
13 24 -2.611751548831169
13 25 2.3793720282487905
13 46 -7.776552790393737
13 47 -1.0345597790994887
13 48 -9.741170356028238
13 49 2.1880856193459484
13 50 1.9666925115864862
13 51 2.3231178930183507
13 281 -1.5242645289594792E-1
13 306 1.8576582714841654
13 735 3.556916528863908E-1
13 957 6.069825580006889E-1
13 958 -4.706704531503853
14 5 4.316930674674447E-1
14 6 -2.2217893176703614
14 7 -4.166866690450322
14 8 -2.1003958544826162E-1
14 9 1.5129238673465958E-1
14 12 -4.055033954189779
14 13 4.299196289700767
14 14 3.1292267963785054E1
14 15 2.5446562931894974
14 16 -8.181306587616143
14 17 1.588816985546738
14 18 -1.1620674299745275
14 19 -2.0145829279035438E-1
14 20 -4.0584505116955794E-1
14 21 5.570068560107111E-3
14 22 1.3567446317687737
14 23 -1.600225534263472E1
14 24 1.0918729839407268
14 25 9.423349664235481E-1
14 46 -5.3808547263276996E-2
14 47 -1.3404678447424656
14 48 -4.2274447824407995
14 49 1.966692511586487
14 50 1.7422244770241497
14 51 2.379372028248791
14 281 -3.7397474948842255
14 306 -2.391725343396961
14 735 -7.301539302329132E-1
14 957 -1.5552678608782616E-1
14 958 -5.471976729842425E-1
15 3 1.693393998046307E-1
15 4 -1.1775059464417267E-1
15 5 -3.1997609536113996
15 6 1.1289510650602683
15 7 5.876974225779021E-1
15 12 -1.3078268751263263E1
15 13 2.5029759978833865E-1
15 14 2.5446562931894974
15 15 4.670211425256039E1
15 16 -6.496156958760598
15 17 -1.5725825317885851E1
15 18 3.9662936152570007
15 22 1.1864165355134467E1
15 23 -4.1320617337138055
15 24 -1.8985592669801648E1
15 25 8.9491640245179E-1
15 46 -3.7314879484439363
15 47 2.0903788272699715
15 48 -2.310162163164024
15 51 1.9980214049965723
15 69 -3.4783664115224626
15 70 -2.3222081837595705
15 71 -5.977740727156389E-2
15 72 -3.4785486354969324
15 73 -4.6653854924213123E-1
15 74 3.2787215101560827
15 110 -7.892562679179299E-1
15 111 4.125297491475917E-1
15 167 8.548074532958893E-1
15 956 1.6288721958088974
16 3 -3.7433881976152167E-1
16 4 4.59956619813623E-1
16 5 -4.1331697456144456E-1
16 6 4.672239609129222E-1
16 7 2.974282418978105E-1
16 12 1.7429046957978684
16 13 -6.529790335033043E-1
16 14 -8.181306587616143
16 15 -6.496156958760598
16 16 4.381149051579943E1
16 17 4.0922102931026325
16 18 -1.6307246889768674E1
16 22 -4.132061733713807
16 23 8.499004533986872
16 24 8.949164024517879E-1
16 25 -2.2499063875899253E1
16 46 2.918469629654383
16 47 -4.587339852209162
16 48 -4.972203049560299E-2
16 51 9.37401402229947E-1
16 69 8.153203120221529E-1
16 70 1.169343886844196
16 71 -1.780964197538488
16 72 5.918012732668466E-1
16 73 2.1458184656331175E-1
16 74 -4.513880207238481
16 110 3.278721510156083
16 111 -8.394491556907719E-1
16 167 4.582786830706579E-1
16 956 1.7877250918673407E-1
17 12 -3.5527978193503045
17 13 1.587257573163602
17 14 1.588816985546738
17 15 -1.5725825317885851E1
17 16 4.0922102931026325
17 17 5.562263724723638E1
17 18 -1.9195350024966908
17 22 -1.6090776437162116E1
17 23 -2.3713926319610437
17 24 1.0378590799796214E1
17 25 -3.655091751721671
17 39 8.274913366609201
17 40 1.962687314876578E-1
17 41 -5.849819049281879E-2
17 46 2.09037882726997
17 47 3.7221416800811036E-1
17 48 4.037510368734691E-1
17 51 3.7308552980021764E-1
17 72 -9.665696620613563
17 73 -1.5177073723694474
17 74 3.2196019535263964
17 110 -5.80877651917187
17 111 -1.8670005510518668
17 734 9.613288426660183E-1
17 735 -3.8083484859439387E-1
17 932 2.629845443638751
17 951 -4.54511372550109
17 952 1.9477041598912637
17 953 -2.5887437208444712
17 954 1.041516644042919
17 955 -1.1177345081824502E-1
17 956 -2.093886203868144
17 957 -9.664357565312638
17 958 -3.5883501713518795
17 959 -1.0264314052687288E1
17 960 6.90350350595845E-1
18 12 7.528355128783741E-1
18 13 -9.251366637141316E-1
18 14 -1.1620674299745275
18 15 3.9662936152570007
18 16 -1.6307246889768674E1
18 17 -1.9195350024966908
18 18 4.540083129899532E1
18 22 -2.371392631961042
18 23 -1.2371912333681998E1
18 24 -3.6550917517216703
18 25 1.1327834613737133E1
18 39 -5.849819049281946E-2
18 40 -1.1063461733741253E-1
18 41 6.799273461512605E-1
18 46 -3.575121383552589
18 47 3.469936914688242
18 48 -1.3263419244879433
18 51 2.8354628208949593
18 72 -6.924045455139406E-1
18 73 -4.223552197654932
18 74 -6.791730753711911
18 110 3.2196019535263964
18 111 2.6694514255086825
18 734 1.2347577439696633
18 735 -7.547693517497627
18 932 -8.040117997331086
18 951 -1.5733122997583497
18 952 3.867327403539245E-1
18 953 -2.1990298832326194
18 954 9.720074884788732E-1
18 955 2.8314883913651195E-1
18 956 -2.720517251358127E-1
18 957 -1.2703495918348842
18 958 2.3345803082689393E-1
18 959 2.6298454436387524
18 960 -3.6689044571813247
19 8 -3.16706077456053
19 9 -1.0900256589612113E-1
19 10 -8.505832950600329
19 12 -1.612808275010393
19 13 -1.9091909779141465
19 14 -2.0145829279035438E-1
19 19 3.0703773779320123E1
19 20 2.0952708649810197E-3
19 21 -3.66218511421693
19 22 -5.487023554385083
19 23 3.6319594977682197
19 48 -1.8058643352413881
19 281 2.1588754884820488E-1
19 300 1.9416769583228273
19 301 1.8384309696262817
19 302 -1.834442944887238
19 560 1.5213549122419994
19 561 2.856938771146448
19 570 -3.670681938518986
19 571 -2.6935932035669072
19 572 1.0975114407084945
19 583 -1.0403839402012667
19 584 -1.2615096429296555
19 585 -2.908700412691241
19 731 -1.0806873328014993E-1
19 732 1.4053417737259983
19 733 -7.218245165597582E-1
19 735 3.549814085464174E-1
19 738 -5.484212242681565E-1
19 739 1.2514202039171436
19 740 1.1713326141277371
19 957 -8.505169346818057
19 958 1.7605175951718137
20 8 -1.090025658961212E-1
20 9 -8.776173373334192
20 10 1.5213549122419976
20 12 -1.9091909779141472
20 13 -1.161693781866286
20 14 -4.0584505116955794E-1
20 19 2.0952708649810197E-3
20 20 2.9843767696044182E1
20 21 -5.974292434952718E-1
20 22 -1.80586433524139
20 23 2.261997233754553
20 48 -3.961691793791023
20 281 -5.621323456971238E-1
20 300 1.8384309696262835
20 301 5.899428494145221E-1
20 302 2.5025621529288
20 560 -2.8686478344015196
20 561 -7.409248446975804E-1
20 570 -2.693593203566906
20 571 -6.043959537906521
20 572 1.607739801279152
20 583 -1.261509642929656
20 584 1.3553999249820805
20 585 -1.1168298636704117
20 731 1.405341773725997
20 732 -2.750459489615293
20 733 8.686689731705088E-1
20 735 -1.997713917437201E-1
20 738 1.251420203917144
20 739 -3.16156421204193
20 740 -3.618035420659348
20 957 1.760517595171816
20 958 -3.0649204474840266
21 8 -3.309805400485244E-2
21 9 3.795020288229145E-1
21 10 1.8743591211705575
21 12 4.287178558822229E-1
21 13 1.5707547903532726E-1
21 14 5.570068560107111E-3
21 19 -3.66218511421693
21 20 -5.974292434952718E-1
21 21 2.6071599407733842E1
21 22 3.6319594977682197
21 23 -9.693259153451077
21 48 2.2619972337545518
21 281 -3.3904185239479374
21 300 -1.8344429448872388
21 301 2.5025621529287996
21 302 7.395867224421132E-1
21 560 -5.068266062701011E-1
21 561 -3.9653092835580734
21 570 4.6148521459205144E-1
21 571 8.637259746225237E-1
21 572 -2.768311111100317
21 583 -2.9087004126912386
21 584 -1.1168298636704117
21 585 -1.3476056831675083
21 731 -3.69421015256446E-1
21 732 7.165020453814192E-2
21 733 -9.387654153905611E-2
21 735 -3.0031188704657845
21 738 1.1713326141277363
21 739 -3.618035420659347
21 740 -2.554857031506309
21 957 1.2399932375159188
21 958 -3.973919396071277E-1
22 8 2.275613680949751
22 9 2.1345956118278746
22 11 -3.561512379531001
22 12 -1.0816247423556694E1
22 13 6.208908793627937E-1
22 14 1.3567446317687737
22 15 1.1864165355134467E1
22 16 -4.132061733713807
22 17 -1.6090776437162116E1
22 18 -2.371392631961042
22 19 -5.487023554385083
22 20 -1.80586433524139
22 21 3.6319594977682197
22 22 9.141204164541789E1
22 23 -1.100241774960175
22 24 -1.0216334957765943E1
22 25 2.017457400917003
22 30 2.14145745042869
22 33 -1.1585703406992245E1
22 34 8.590223822323924E-1
22 35 -1.2828549941751117
22 36 6.177200254724343
22 37 -2.708800397348985
22 38 2.051157969914098
22 39 -1.0222266238740309E1
22 40 6.136223818635222E-1
22 41 4.431008361157523
22 42 -5.463479367742568
22 43 -1.7536758516413884
22 44 -1.0804745876341293E1
22 45 -1.5185428973903703
22 46 -2.3101621631640246
22 47 4.037510368734696E-1
22 48 3.379735951427275
22 49 2.000387335774165
22 50 1.177134372270829E-2
22 51 1.1728258787482035
22 74 -7.155342028606322E-1
22 110 1.0824756144398628
22 111 -3.1862366716077775
22 278 2.295730286896485
22 279 -2.0695708589550623
22 281 2.0645891046745897
22 300 -1.2396426464573649E1
22 301 2.3060436777490545
22 302 -1.5755688876207045E-2
22 306 -2.878085233382597
22 583 -1.291825887318508
22 584 -2.6169620820482287
22 585 -2.167514744059315E-2
22 725 5.214756864529006
22 726 2.260914781771037
22 727 1.7194598204036515E-1
22 728 2.386548069229604E-1
22 734 -1.8636035061777992E-1
22 735 -4.903071305787553E-1
22 736 1.6257742396071457
22 737 2.7039602043312544E-2
22 738 -1.4866453145471773E1
22 739 -5.4577237909557175
22 740 9.40244517728494E-3
22 767 4.185065534008183
22 932 -6.44642524366695E-2
22 954 5.470142830214934
22 955 2.4703262711361997
22 957 -1.145091479269637E1
22 958 -1.7020281604654006
22 959 -6.4069092801857765
22 960 1.0706484710614614
23 8 2.064589104674589
23 9 -1.842552931722948
23 11 -9.76341342944223
23 12 1.356744631768775
23 13 -4.227444782440797
23 14 -1.600225534263472E1
23 15 -4.1320617337138055
23 16 8.499004533986872
23 17 -2.3713926319610437
23 18 -1.2371912333681998E1
23 19 3.6319594977682197
23 20 2.261997233754553
23 21 -9.693259153451077
23 22 -1.100241774960175
23 23 1.003599020943816E2
23 24 2.0174574009170043
23 25 -7.821835611369833
23 30 1.8355446645312667
23 33 -1.2828549941751104
23 34 4.416095462676197
23 35 -1.64323475840946E1
23 36 2.0511579699140974
23 37 1.7710668955226112
23 38 1.9107110821657778
23 39 4.431008361157523
23 40 -2.508023319324549E-2
23 41 -6.073613397479862
23 42 -3.561512379531001
23 43 -2.2247494466401156
23 44 2.3865480692295782E-1
23 45 -1.5048228631168088
23 46 -4.97220304956024E-2
23 47 -1.326341924487944
23 48 5.596500716976847E-1
23 49 1.0529107987787362E-2
23 50 -2.200294234907015
23 51 -1.6434200504355003
23 74 6.438192849919934
23 110 -7.15534202860632E-1
23 111 5.227043997392911E-1
23 278 -2.0695708589550614
23 279 -5.165983119056989E-1
23 281 -5.085593689451495E-1
23 300 -1.5755688876206875E-2
23 301 1.0984988084221013E-2
23 302 -3.5013483764219764
23 306 1.1771343722708116E-2
23 583 -2.1675147440593914E-2
23 584 -2.9606052354248596E-2
23 585 3.14533719585045
23 725 1.7194598204036476E-1
23 726 -4.008557125346648
23 727 1.7383380579321135
23 728 -1.6213626668176744E1
23 734 1.8693267204430042
23 735 -1.6769508327864287E1
23 736 3.979102152366665E-2
23 737 5.07639671527483
23 738 9.4024451772854E-3
23 739 1.9083946422367843E-2
23 740 -1.1117732595972463E1
23 767 2.7039602043313238E-2
23 932 -5.09045136069165E-2
23 954 -1.8636035061777984E-1
23 955 4.013989779080032
23 957 -4.903071305787564E-1
23 958 1.5093674830266384
23 959 -6.446425243666888E-2
23 960 -8.85076138124583E-2
24 1 -9.002445333275862
24 2 5.3852011353824505
24 3 -9.169210212201682
24 4 -3.168252302718747
24 5 -3.662502923001092
24 6 1.454446104672202E-3
24 7 3.522948889256085
24 12 3.889429972707158
24 13 -2.611751548831169
24 14 1.0918729839407268
24 15 -1.8985592669801648E1
24 16 8.949164024517879E-1
24 17 1.0378590799796214E1
24 18 -3.6550917517216703
24 22 -1.0216334957765943E1
24 23 2.0174574009170043
24 24 9.47661082869844E1
24 25 -6.384108136405143
24 26 -3.6811078981123985E-1
24 27 -2.894275846429812
24 28 8.493952677916364E-2
24 29 -3.3661819735956566
24 32 2.2565197404669295
24 33 4.559484126333795
24 34 -2.683243941243185
24 35 -1.0287549689639113
24 36 -5.215333744551366
24 37 2.741046335575825
24 38 3.085327243503305
24 46 1.998021404996573
24 47 3.7308552980021703E-1
24 48 1.1728258787482035
24 49 -2.731756439767728
24 50 -8.25933586702307E-2
24 51 -4.9870931154098175
24 69 8.331115015485411E-1
24 70 -8.807125639005166E-1
24 71 -2.8449382956066995
24 74 4.0405851167397415
24 109 -9.95021528376191
24 110 -2.1483458347800035E1
24 111 5.810526307572623
24 167 1.0330803255370595
24 177 2.8902352653299346
24 178 5.375694012227146E-1
24 179 -8.348928592910352E-1
24 180 -4.189463893786066
24 181 -3.413472134704892
24 185 6.860992674871122
24 186 -1.1268049953272004
24 187 8.955829554745546E-1
24 188 -8.848130683447998
24 189 4.0379525006620645
24 190 3.416891200056614
24 229 -4.657548003175192
24 230 4.2750245395571446E-1
24 306 -2.056098873174777E1
25 1 5.385201135382451
25 2 -1.7403389732202942E1
25 3 -3.168252302718746
25 4 -1.8240101928432807E1
25 5 3.522948889256087
25 6 9.6675677647014E-1
25 7 -8.266451856321675
25 12 1.0918729839407275
25 13 2.3793720282487905
25 14 9.423349664235481E-1
25 15 8.9491640245179E-1
25 16 -2.2499063875899253E1
25 17 -3.655091751721671
25 18 1.1327834613737133E1
25 22 2.017457400917003
25 23 -7.821835611369833
25 24 -6.384108136405143
25 25 9.005607040472213E1
25 26 5.736288517319583E-1
25 27 -3.366181973595659
25 28 -9.231846676537796E-1
25 29 -7.440975702665339
25 32 1.6597896191125794
25 33 -1.0287549689639106
25 34 -2.325430529335879
25 35 1.267775383230871
25 36 3.085327243503306
25 37 -2.517691124056216
25 38 -6.959634304740237
25 46 9.374014022299468E-1
25 47 2.8354628208949597
25 48 -1.6434200504355
25 49 -2.3353807873430596E-2
25 50 -5.410098513821242
25 51 3.1514706437248297
25 69 -2.844938295606701
25 70 -7.804218252219983E-2
25 71 1.7201268537469407
25 74 -1.1990601580054086E1
25 109 4.275024539557136E-1
25 110 4.0405851167397415
25 111 -2.530800717473698
25 167 -1.8861664768192457
25 177 -8.348928592910352E-1
25 178 3.6021183043656237
25 179 2.23731502027281
25 180 -3.4134721347048926
25 181 -1.1413141841127605
25 185 8.955829554745546E-1
25 186 -3.5878135049863364
25 187 4.5876500237661055
25 188 3.4168912000566154
25 189 -1.658505844343805
25 190 -3.62005407992577
25 229 1.0684084587212637
25 230 -1.3455858963535965
25 306 -8.259335867023182E-2
26 1 -1.510651639442243E-1
26 2 3.730818725691412
26 24 -3.6811078981123985E-1
26 25 5.736288517319583E-1
26 26 3.0669567259196977E1
26 27 -2.1891966550765214
26 28 -2.2641302876416107
26 29 -1.7501418674745917E-1
26 32 -3.775955947392323E-1
26 36 3.5461793616254317E-1
26 37 -7.554822635696515
26 38 -1.7112986015596527
26 51 -7.638889948494571
26 74 2.193989751006246
26 75 -2.168525390033863
26 94 1.0906155797472024
26 95 -1.6399320247083904
26 96 -5.918157903872238E-1
26 109 -1.540353006485843
26 110 1.9277178971827031
26 111 1.9100310209997062
26 177 2.097277233953393
26 178 -8.88432245721857
26 179 -3.4924394494938906
26 180 9.470223583058488E-1
26 181 3.2932275689601237E-1
26 202 -2.9678679111190585
26 203 1.9394860700539849
26 229 -1.2520374205787395
26 230 -2.7966781271913868
27 1 -2.268465773857962
27 2 1.7644998165348635E-1
27 24 -2.894275846429812
27 25 -3.366181973595659
27 26 -2.1891966550765214
27 27 2.2098373365420436E1
27 28 -4.2228864470787336E-1
27 29 -3.5909475482022507E-1
27 30 -1.9714947210284832
27 32 1.5359029127715296
27 33 -2.373706207032357
27 34 1.0222719809461518
27 35 -4.221815895952038E-1
27 36 -3.685287492338362
27 37 1.2506314563904246
27 38 4.1444672162599994E-1
27 49 -8.928660237082284E-2
27 50 3.538458039278788
27 51 8.493952677916296E-2
27 180 -2.445146919407174
27 181 3.3729323855588905E-1
27 278 -1.6482027171040987
27 279 1.3738124942459262E-1
27 282 -3.538879071079834
27 283 7.785207462964321E-1
27 284 -4.565709125276689E-1
27 306 -3.2444093381708328
28 1 -2.1891966550765223
28 2 5.972656195146164E-1
28 24 8.493952677916364E-2
28 25 -9.231846676537796E-1
28 26 -2.2641302876416107
28 27 -4.2228864470787336E-1
28 28 2.587263425740354E1
28 29 -5.274322359416848E-1
28 30 -1.6412088722512752
28 32 -7.69598926590559
28 33 1.0222719809461513
28 34 -8.04613949101667
28 35 2.2202644729915915
28 36 1.2506314563904255
28 37 -2.3043869168097308E-1
28 38 -4.673653082940475E-1
28 49 -2.7837793643151327
28 50 9.70431852651475E-1
28 51 -3.332479238211995
28 180 1.5359029127715296
28 181 -1.730175129099497
28 278 -1.971494721028483
28 279 -3.692244969944717E-1
28 282 7.78520746296433E-1
28 283 1.2153095361970734E-1
28 284 2.2941989282579675E-1
28 306 -8.928660237082355E-2
29 1 -5.968118259012531E-1
29 2 -1.6428127543590887E-1
29 24 -3.3661819735956566
29 25 -7.440975702665339
29 26 -1.7501418674745917E-1
29 27 -3.5909475482022507E-1
29 28 -5.274322359416848E-1
29 29 2.3005721480641053E1
29 30 3.2374372789889677E-1
29 32 -2.7311895262338015
29 33 -6.271714932729094E-1
29 34 3.1983496032490084
29 35 -4.210174434465843
29 36 -5.885523298971029E-1
29 37 -1.5931913605311096E-1
29 38 -9.147347469821709E-4
29 49 9.70431852651475E-1
29 50 -7.8952310296381
29 51 -9.231846676537799E-1
29 180 6.456588640301992E-1
29 181 -3.450056091599682
29 278 8.32014675473385E-1
29 279 1.2934487015943164E-1
29 282 5.216807987047757E-1
29 283 2.3614568830455346E-2
29 284 2.6566917751373154E-2
29 306 3.5384580392787868
30 11 -3.648580423014842E-1
30 22 2.14145745042869
30 23 1.8355446645312667
30 27 -1.9714947210284832
30 28 -1.6412088722512752
30 29 3.2374372789889677E-1
30 30 2.778089449974446E1
30 31 -1.9211581288179673
30 33 2.0801466387218434E-1
30 34 -3.43236361846805
30 35 -1.4421347172806231E-1
30 42 -1.1054206370336828E-1
30 43 -8.711241320316452
30 48 1.8725528412505639
30 49 -3.107712469674971
30 50 -3.1238088726733255
30 278 3.957352127235599E-1
30 279 4.7173412586512925E-1
30 280 -5.031720210738803E-1
30 282 2.425298182476545
30 283 -6.8056275505608745
30 284 -1.7882863672531724E-1
30 291 9.757439788636059E-1
30 292 -2.3025141744016214E-1
30 293 3.969632890638207E-1
30 300 -6.846378695977379E-1
30 301 -4.375434481399375
30 302 1.2868952371429567
30 306 -1.458416705217028
30 551 -1.3496076108838615
31 11 -1.873534966664952
31 30 -1.9211581288179673
31 31 2.519483958582471E1
31 42 -8.274424357091897
31 43 1.5121844378095861
31 278 -1.3496076108838597
31 279 5.031720210738798E-1
31 280 -1.3568452754184201E-1
31 285 -7.398159285540739
31 286 1.6669323752709073
31 287 2.0052947372908854
31 291 -3.3413390255183417E-1
31 292 9.238567848252034E-1
31 293 -3.825423588008306E-1
31 300 -2.6115722172163793
31 301 -3.06746894085954E-2
31 302 -8.941771753351182E-1
31 551 -1.289052786349151
31 552 -1.8839170642465004
31 553 -2.016596413637182
31 554 -5.917346347546251E-1
31 568 2.4210325098285135E-2
31 569 4.564674264449753E-1
31 583 -3.367235473391788
31 584 3.131146799508014E-2
31 585 9.12739478287627E-1
31 608 1.1231969523121197
32 1 9.470223583058497E-1
32 2 7.273453178206965E-2
32 24 2.2565197404669295
32 25 1.6597896191125794
32 26 -3.775955947392323E-1
32 27 1.5359029127715296
32 28 -7.69598926590559
32 29 -2.7311895262338015
32 32 3.584373911854095E1
32 49 -6.061442395793995
32 50 3.459256694850273
32 51 2.3720059408153904E-1
32 177 -4.739099061897488
32 178 -7.6118689444430565
32 179 -1.1437209920368165
32 180 1.2148154246972913
32 181 3.0743439899732192
32 182 3.2566095583212458
32 183 -8.420613298204168
32 184 -1.0583398225044098
32 188 4.7222161340361707E-1
32 189 -5.680255510349432E-1
32 190 -2.6019959091506983
32 282 -1.9316196209714351
32 283 -2.4409462505617103
32 284 -1.0066865394624696
32 306 -3.3164482102210022
32 364 -2.904458411939794
32 381 3.040752851234627E-1
32 382 2.758079536700538E-1
33 11 -4.242240912949784E-1
33 22 -1.1585703406992245E1
33 23 -1.2828549941751104
33 24 4.559484126333795
33 25 -1.0287549689639106
33 27 -2.373706207032357
33 28 1.0222719809461513
33 29 -6.271714932729094E-1
33 30 2.0801466387218434E-1
33 33 3.740472316612101E1
33 34 -1.9734635612460765
33 35 4.032154020335387
33 36 -1.428593768025334E1
33 37 4.4194467089441614E-1
33 38 -1.8442178945200058
33 39 -3.3841286836393105
33 40 1.6080745483420742
33 41 -7.26297080505597E-1
33 42 -1.642392136241365
33 43 -1.9172814204809607
33 44 -5.871936776448552E-1
33 45 4.7375544925066143E-1
33 48 8.590223822323926E-1
33 49 1.9609052274323422
33 50 2.3652168438243018
33 51 -2.6832439412431848
33 278 -9.507860251684871
33 279 -7.431410627064162E-1
33 306 1.4027147510335511
33 728 2.792907212792404E-1
34 11 -1.6181955048760144E-1
34 22 8.590223822323924E-1
34 23 4.416095462676197
34 24 -2.683243941243185
34 25 -2.325430529335879
34 27 1.0222719809461518
34 28 -8.04613949101667
34 29 3.1983496032490084
34 30 -3.43236361846805
34 33 -1.9734635612460765
34 34 3.2401948465738414E1
34 35 -4.5481445510087335
34 36 4.4194467089441447E-1
34 37 -8.534276661400474
34 38 6.901362361647554E-1
34 39 1.6080745483420738
34 40 -9.81128343739943E-1
34 41 9.252012384221573E-1
34 42 -1.917281420480959
34 43 -1.191554677322127
34 44 4.737554492506618E-1
34 45 -4.679989679928751
34 48 -1.0508836225251034E1
34 49 2.1286491837442556
34 50 -1.9749465176074383
34 51 2.8436910476443784
34 278 2.0801466387218365E-1
34 279 1.5592879902203188E-1
34 306 1.9609052274323433
34 728 -3.7537019109449626E-1
35 11 -1.4498535613209546E-2
35 22 -1.2828549941751117
35 23 -1.64323475840946E1
35 24 -1.0287549689639113
35 25 1.267775383230871
35 27 -4.221815895952038E-1
35 28 2.2202644729915915
35 29 -4.210174434465843
35 30 -1.4421347172806231E-1
35 33 4.032154020335387
35 34 -4.5481445510087335
35 35 3.206382695718276E1
35 36 -2.68479986349283
35 37 9.29816494639551E-2
35 38 -8.726814625028139
35 39 -1.5648643253591534
35 40 1.3398400499972134
35 41 -1.1018602062337226
35 42 2.0935324988087456E-1
35 43 4.0162676819475873E-1
35 44 1.700149610096352E-1
35 45 5.219266663563955E-1
35 48 4.4160954626762
35 49 -1.9749465176074377
35 50 1.614950246206747
35 51 -2.3254305293358786
35 278 2.0671666653601317E-1
35 279 -3.735895136832737
35 306 2.3652168438243013
35 728 -7.249620643521237E-1
36 1 -2.033515395557174
36 2 -1.1612965953422322E-1
36 22 6.177200254724343
36 23 2.0511579699140974
36 24 -5.215333744551366
36 25 3.085327243503306
36 26 3.5461793616254317E-1
36 27 -3.685287492338362
36 28 1.2506314563904255
36 29 -5.885523298971029E-1
36 33 -1.428593768025334E1
36 34 4.4194467089441447E-1
36 35 -2.68479986349283
36 36 3.637210156720106E1
36 37 -4.014156691652165
36 38 2.9009383186543705
36 39 -4.260747900832117
36 40 2.3489091073599258
36 41 -1.8127001555316455E-1
36 48 -2.7088003973489845
36 51 2.7410463355758243
36 74 -5.2977634556002435
36 94 -1.592632397932864
36 95 -1.874245327451662
36 96 3.183728829663876E-1
36 97 -3.6803539155077862
36 98 1.6306206066676814
36 99 5.127189090394025E-1
36 110 -7.795493294952394
36 111 -1.7056769659800247E-1
37 1 3.5461793616254306E-1
37 2 -6.146102365601935E-1
37 22 -2.708800397348985
37 23 1.7710668955226112
37 24 2.741046335575825
37 25 -2.517691124056216
37 26 -7.554822635696515
37 27 1.2506314563904246
37 28 -2.3043869168097308E-1
37 29 -1.5931913605311096E-1
37 33 4.4194467089441614E-1
37 34 -8.534276661400474
37 35 9.29816494639551E-2
37 36 -4.014156691652165
37 37 3.428961516084197E1
37 38 -9.037611877497102E-2
37 39 2.3489091073599258
37 40 -9.416466060011846
37 41 6.160764039302101E-1
37 48 3.63102037936146
37 51 -4.223160185287436
37 74 8.74459665982275E-1
37 94 -1.8742453274516624
37 95 -8.611047272999579E-1
37 96 7.001240527635876E-1
37 97 1.6306206066676812
37 98 -8.105253155156313E-1
37 99 -6.727120522181467E-1
37 110 -1.7056769659800303E-1
37 111 -6.289841263310599
38 1 1.4248086297714704E-1
38 2 -2.5308430951094576
38 22 2.051157969914098
38 23 1.9107110821657778
38 24 3.085327243503305
38 25 -6.959634304740237
38 26 -1.7112986015596527
38 27 4.1444672162599994E-1
38 28 -4.673653082940475E-1
38 29 -9.147347469821709E-4
38 33 -1.8442178945200058
38 34 6.901362361647554E-1
38 35 -8.726814625028139
38 36 2.9009383186543705
38 37 -9.037611877497102E-2
38 38 3.167328327983258E1
38 39 -3.08416269773517E-1
38 40 1.6277783051384171
38 41 -3.952139157532862
38 48 1.771066895522611
38 51 -2.517691124056216
38 74 -1.2333656471144996E1
38 94 -5.57479914336363E-1
38 95 -3.531676203682721E-3
38 96 7.579357291154367E-1
38 97 -5.864735824447934E-1
38 98 -1.7317827391948762E-1
38 99 1.620722971888785E-1
38 110 -5.297763455600242
38 111 8.744596659822745E-1
39 17 8.274913366609201
39 18 -5.849819049281946E-2
39 22 -1.0222266238740309E1
39 23 4.431008361157523
39 33 -3.3841286836393105
39 34 1.6080745483420738
39 35 -1.5648643253591534
39 36 -4.260747900832117
39 37 2.3489091073599258
39 38 -3.08416269773517E-1
39 39 4.52578281440561E1
39 40 2.2193842107869002E-1
39 41 -1.7498086142812133
39 44 -1.0037165380400472E1
39 45 -3.685970592477128
39 47 1.9626873148765836E-1
39 48 6.13622381863523E-1
39 74 -1.7853032256380184
39 97 -9.019373587283908
39 98 -2.0370556368152974
39 99 1.5639102924691306
39 110 -1.7159265137901465
39 111 -1.690057223170486
39 725 7.696376126845852E-1
39 726 -7.556100574781854E-2
39 727 -8.487768707253796E-1
39 728 3.904135401040424E-1
39 917 -4.431274803487724
39 918 1.788841805407018
39 919 2.5673348057749688
39 932 -2.6369995032355638
39 959 -1.123149601517591E1
39 960 7.109894626718383E-1
40 17 1.962687314876578E-1
40 18 -1.1063461733741253E-1
40 22 6.136223818635222E-1
40 23 -2.508023319324549E-2
40 33 1.6080745483420742
40 34 -9.81128343739943E-1
40 35 1.3398400499972134
40 36 2.3489091073599258
40 37 -9.416466060011846
40 38 1.6277783051384171
40 39 2.2193842107869002E-1
40 40 4.5859260995752926E1
40 41 -1.2824700974638747
40 44 -3.6859705924771315
40 45 -1.0855136785776848E1
40 47 9.11512549611095
40 48 -7.445038073710623
40 74 -3.5647856386289516
40 97 -2.037055636815297
40 98 -3.9369500876655428
40 99 8.238517413379179E-1
40 110 -1.6900572231704867
40 111 -4.640488476629198
40 725 -7.556100574781832E-2
40 726 -2.79391762766899
40 727 -1.242416687000267
40 728 -5.625591654692833E-1
40 917 1.7888418054070185
40 918 -2.0742817644288656
40 919 -9.704326937381109E-1
40 932 3.966909036357597
40 959 7.109894626718389E-1
40 960 -1.2830979272232021E1
41 17 -5.849819049281879E-2
41 18 6.799273461512605E-1
41 22 4.431008361157523
41 23 -6.073613397479862
41 33 -7.26297080505597E-1
41 34 9.252012384221573E-1
41 35 -1.1018602062337226
41 36 -1.8127001555316455E-1
41 37 6.160764039302101E-1
41 38 -3.952139157532862
41 39 -1.7498086142812133
41 40 -1.2824700974638747
41 41 3.443852678741444E1
41 44 1.2843689938189136
41 45 -1.4765810701090104E-1
41 47 -1.1063461733741067E-1
41 48 -2.508023319324865E-2
41 74 -2.046198426804841
41 97 7.386157057202987E-1
41 98 2.4402010579793076E-1
41 99 -3.9491971285756065
41 110 -1.7853032256380201
41 111 -3.564785638628952
41 725 -8.62049528830106E-1
41 726 -2.4794623988522357E-1
41 727 1.1702770185856566
41 728 -7.9687097654914485
41 917 1.5462330978397465
41 918 -3.736318509882833E-1
41 919 -2.146648659786611
41 932 -9.050364410246408
41 959 -2.6369995032355624
41 960 3.9669090363575963
42 11 3.5832416091202433
42 22 -5.463479367742568
42 23 -3.561512379531001
42 30 -1.1054206370336828E-1
42 31 -8.274424357091897
42 33 -1.642392136241365
42 34 -1.917281420480959
42 35 2.0935324988087456E-1
42 42 3.052336332421622E1
42 43 1.4947901706800123E-2
42 44 -8.583482778432552
42 45 1.7587625484531384
42 48 -1.7536758516413873
42 278 -3.118744736887487
42 279 -2.1136179929720647E-1
42 280 -2.8576118253707756
42 300 2.0047469278293404
42 301 1.8151258378310375
42 302 1.8359929808842113
42 551 1.512184437809588
42 568 -3.6301554126514035
42 569 -1.1089766227396458
42 583 -1.2198646518348986
42 584 -1.2596172570148962
42 585 2.947863559682971
42 608 -2.6346679055170785
42 722 -8.841362246691392E-2
42 723 1.3991851121857872
42 724 7.167832807346333E-1
42 728 -3.923350439060179E-1
42 738 -5.071531886964733E-1
42 739 1.1755786603713378
42 740 -1.161437009458285
43 11 5.092192825260196E-1
43 22 -1.7536758516413884
43 23 -2.2247494466401156
43 30 -8.711241320316452
43 31 1.5121844378095861
43 33 -1.9172814204809607
43 34 -1.191554677322127
43 35 4.0162676819475873E-1
43 42 1.4947901706800123E-2
43 43 2.968289626075843E1
43 44 1.7587625484531395
43 45 -3.110671031703412
43 48 -4.034596429510735
43 278 -1.1054206370336644E-1
43 279 5.770957854499867E-1
43 280 7.340196276330055E-1
43 300 1.8151258378310375
43 301 7.924243466804245E-1
43 302 -2.498381594071404
43 551 -2.810292581228391
43 568 -2.6346679055170767
43 569 -1.6075238546930617
43 583 -1.259617257014896
43 584 1.181908241356673
43 585 1.1318073135331375
43 608 -5.992583354503465
43 722 1.3991851121857857
43 723 -2.724815024329399
43 724 -8.464528961858749E-1
43 728 2.020395933218614E-1
43 738 1.175578660371338
43 739 -3.0814744298815437
43 740 3.6212994209316864
44 11 -1.2782383826555268
44 22 -1.0804745876341293E1
44 23 2.3865480692295782E-1
44 33 -5.871936776448552E-1
44 34 4.737554492506618E-1
44 35 1.700149610096352E-1
44 39 -1.0037165380400472E1
44 40 -3.6859705924771315
44 41 1.2843689938189136
44 42 -8.583482778432552
44 43 1.7587625484531395
44 44 4.102581420579886E1
44 45 4.05873352743872
44 48 -1.5185428973903723
44 722 -2.429505687060098
44 723 -1.9457317604390885
44 724 -9.753421085507639E-1
44 725 -1.56166799505725E1
44 726 -7.401989696824123E-1
44 727 1.4989841225444538
44 728 -6.077131104644682E-1
44 738 1.783170826884726
44 739 -4.257382006069299E-1
44 740 2.0677007202538435
44 932 -2.398430002879044
44 959 5.249788317768177
44 960 2.0249308954534144
45 11 3.9601331825306013E-1
45 22 -1.5185428973903703
45 23 -1.5048228631168088
45 33 4.7375544925066143E-1
45 34 -4.679989679928751
45 35 5.219266663563955E-1
45 39 -3.685970592477128
45 40 -1.0855136785776848E1
45 41 -1.4765810701090104E-1
45 42 1.7587625484531384
45 43 -3.110671031703412
45 44 4.05873352743872
45 45 4.688225070749256E1
45 48 -1.336950470016291E1
45 722 -1.9457317604390876
45 723 -4.314093097873305
45 724 -2.0274951139753616
45 725 -7.401989696824132E-1
45 726 -2.029001419649882E1
45 727 3.1878824440829643
45 728 -1.903907822377004
45 738 -4.2573820060692985E-1
45 739 9.828111292572947E-1
45 740 2.2664049860296167
45 932 -7.883435082419612E-1
45 959 2.024930895453412
45 960 8.754347655194183
46 3 8.548074532958909E-1
46 4 -6.375429830456593E-1
46 5 1.128951065060268
46 6 -8.547142194807644E-2
46 7 1.5885833544055344E-1
46 12 2.502975997883385E-1
46 13 -7.776552790393737
46 14 -5.3808547263276996E-2
46 15 -3.7314879484439363
46 16 2.918469629654383
46 17 2.09037882726997
46 18 -3.575121383552589
46 22 -2.3101621631640246
46 23 -4.97220304956024E-2
46 24 1.998021404996573
46 25 9.374014022299468E-1
46 46 4.046599110482686E1
46 47 -1.6492949189897555E1
46 48 7.079450724085519
46 51 -1.5320321401382392E1
46 69 -2.32220818375957
46 70 -4.369833205303614
46 71 4.6549104365999155E-1
46 72 1.6288721958088965
46 73 6.754236890630229E-1
46 74 -8.394491556907708E-1
46 110 4.125297491475909E-1
46 111 5.137475391709456E-1
46 167 -3.29437647551783
46 956 -7.196848836401232E-1
47 12 1.5872575731636036
47 13 -1.0345597790994887
47 14 -1.3404678447424656
47 15 2.0903788272699715
47 16 -4.587339852209162
47 17 3.7221416800811036E-1
47 18 3.469936914688242
47 22 4.037510368734696E-1
47 23 -1.326341924487944
47 24 3.7308552980021703E-1
47 25 2.8354628208949597
47 39 1.9626873148765836E-1
47 40 9.11512549611095
47 41 -1.1063461733741067E-1
47 46 -1.6492949189897555E1
47 47 5.153051150112692E1
47 48 -1.0689224578157216E1
47 51 6.046644806948281
47 72 -2.093886203868144
47 73 -8.514139449395468E-1
47 74 2.669451425508682
47 110 -1.8670005510518675
47 111 -7.2054846005297755
47 734 1.2778422399685787
47 735 6.425731835529013E-1
47 932 -3.6689044571813243
47 951 1.9477041598912634
47 952 -2.157154076753526
47 953 9.898360562844902E-1
47 954 -1.1177345081824491E-1
47 955 -2.793839251147537
47 956 -4.216096001099995
47 957 -3.588350171351881
47 958 -1.0327940497302473E1
47 959 6.90350350595844E-1
47 960 -1.177503383019859E1
48 8 2.1345956118278737
48 9 1.851076065371094
48 11 -2.2247494466401125
48 12 6.208908793627932E-1
48 13 -9.741170356028238
48 14 -4.2274447824407995
48 15 -2.310162163164024
48 16 -4.972203049560299E-2
48 17 4.037510368734691E-1
48 18 -1.3263419244879433
48 19 -1.8058643352413881
48 20 -3.961691793791023
48 21 2.2619972337545518
48 22 3.379735951427275
48 23 5.596500716976847E-1
48 24 1.1728258787482035
48 25 -1.6434200504355
48 30 1.8725528412505639
48 33 8.590223822323926E-1
48 34 -1.0508836225251034E1
48 35 4.4160954626762
48 36 -2.7088003973489845
48 37 3.63102037936146
48 38 1.771066895522611
48 39 6.13622381863523E-1
48 40 -7.445038073710623
48 41 -2.508023319324865E-2
48 42 -1.7536758516413873
48 43 -4.034596429510735
48 44 -1.5185428973903723
48 45 -1.336950470016291E1
48 46 7.079450724085519
48 47 -1.0689224578157216E1
48 48 9.428417999609943E1
48 49 -9.407015153649013
48 50 1.0529107987788777E-2
48 51 -1.4425377229251671E1
48 74 5.227043997392913E-1
48 110 -3.1862366716077766
48 111 6.168266249788665
48 278 2.141457450428688
48 279 1.8355446645312643
48 281 -1.8425529317229474
48 300 2.306043677749053
48 301 -5.219190175868815
48 302 1.0984988084220703E-2
48 306 2.000387335774166
48 583 -2.616962082048227
48 584 3.401045987028681
48 585 -2.9606052354248763E-2
48 725 2.260914781771037
48 726 4.479515479509303
48 727 -4.00855712534665
48 728 -1.5048228631168081
48 734 4.013989779080034
48 735 1.5093674830266401
48 736 -2.2494588200568204
48 737 3.9791021523665676E-2
48 738 -5.45772379095572
48 739 -2.1956824094475806E1
48 740 1.9083946422367028E-2
48 767 1.6257742396071442
48 932 -8.850761381245667E-2
48 954 2.470326271136202
48 955 4.91148851583632
48 957 -1.7020281604654022
48 958 -1.4138729942238012E1
48 959 1.0706484710614632
48 960 -5.319386661791199E-1
49 5 -1.3800097686012397E-3
49 6 -2.6546805238250077
49 7 -9.172796373168827E-1
49 8 -1.454586733270598
49 9 -3.0948300818003185
49 12 1.8576582714841665
49 13 2.1880856193459484
49 14 1.966692511586487
49 22 2.000387335774165
49 23 1.0529107987787362E-2
49 24 -2.731756439767728
49 25 -2.3353807873430596E-2
49 27 -8.928660237082284E-2
49 28 -2.7837793643151327
49 29 9.70431852651475E-1
49 30 -3.107712469674971
49 32 -6.061442395793995
49 33 1.9609052274323422
49 34 2.1286491837442556
49 35 -1.9749465176074377
49 48 -9.407015153649013
49 49 6.559881226114815E1
49 50 -3.2841616856873763E-2
49 51 -6.606366954871994
49 180 -3.316448210221004
49 181 3.4592566948502723
49 188 -3.3911616504970175
49 189 -1.181065433013909E1
49 190 -3.457736399201965
49 278 -1.4584167052170278
49 279 -3.123808872673324
49 281 3.1227833432966943
49 282 -4.360624371926228E-1
49 283 -6.695183627084554
49 284 -2.4415270009133656
49 297 -4.360624371926221E-1
49 298 2.4415270009133647
49 300 -4.816920064991477
49 301 -1.1452283364862202E1
49 302 2.733411571994304E-4
49 303 -1.3887005310014806
49 304 1.5139597135323253
49 305 9.43689570931383E-16
49 306 6.726255660047173
49 364 -3.4766444079223273
49 365 -6.695183627084552
49 369 2.4162695232524722
49 381 3.3755181372057788
49 382 3.1326966516959183
49 390 3.600057189547375
49 391 -3.1326966516959205
50 5 -3.342649731633453
50 6 -9.172796373168831E-1
50 7 -7.855711291774116
50 8 2.1550243341953066
50 9 3.122783343296695
50 12 -2.391725343396961
50 13 1.9666925115864862
50 14 1.7422244770241497
50 22 1.177134372270829E-2
50 23 -2.200294234907015
50 24 -8.25933586702307E-2
50 25 -5.410098513821242
50 27 3.538458039278788
50 28 9.70431852651475E-1
50 29 -7.8952310296381
50 30 -3.1238088726733255
50 32 3.459256694850273
50 33 2.3652168438243018
50 34 -1.9749465176074383
50 35 1.614950246206747
50 48 1.0529107987788777E-2
50 49 -3.2841616856873763E-2
50 50 6.726001575468989E1
50 51 -2.335380787343044E-2
50 180 1.648288942647422
50 181 -2.893118748961567
50 188 -1.6442399534462497
50 189 -3.457736399201966
50 190 -5.153596515817219
50 278 -2.1570770187144053
50 279 -5.061327005411319
50 281 -5.052000179804876
50 282 -3.784858026729272
50 283 -2.441527000913368
50 284 -1.4101642781235634E1
50 297 3.78485802672927
50 298 -1.4101642781235629E1
50 300 -3.4036908806225896E-4
50 301 2.7334115719984675E-4
50 302 -6.033400880788497
50 303 -5.828670879282072E-16
50 304 8.881784197001252E-16
50 305 1.6767521852757041
50 306 -1.0013372871916193E-1
50 364 3.132696651695919
50 365 2.441527000913365
50 369 -3.1326966516959205
50 381 -1.5264898354664114
50 382 5.506213606855913E-1
50 390 1.5264898354664123
50 391 2.9134999395131276
51 1 -3.681107898112391E-1
51 2 5.736288517319577E-1
51 3 1.0330803255370586
51 4 -1.8861664768192463
51 5 1.454446104671774E-3
51 6 -3.8204856033560497
51 7 9.667567764701402E-1
51 12 -2.61175154883117
51 13 2.3231178930183507
51 14 2.379372028248791
51 15 1.9980214049965723
51 16 9.37401402229947E-1
51 17 3.7308552980021764E-1
51 18 2.8354628208949593
51 22 1.1728258787482035
51 23 -1.6434200504355003
51 24 -4.9870931154098175
51 25 3.1514706437248297
51 26 -7.638889948494571
51 27 8.493952677916296E-2
51 28 -3.332479238211995
51 29 -9.231846676537799E-1
51 32 2.3720059408153904E-1
51 33 -2.6832439412431848
51 34 2.8436910476443784
51 35 -2.3254305293358786
51 36 2.7410463355758243
51 37 -4.223160185287436
51 38 -2.517691124056216
51 46 -1.5320321401382392E1
51 47 6.046644806948281
51 48 -1.4425377229251671E1
51 49 -6.606366954871994
51 50 -2.335380787343044E-2
51 51 7.64164300412259E1
51 69 -8.807125639005159E-1
51 70 4.849675712987306
51 71 -7.804218252219944E-2
51 74 -2.5308007174736993
51 109 -4.657548003175193
51 110 5.810526307572622
51 111 -1.4462304079083763E1
51 167 -9.719151863590012
51 177 5.37569401222715E-1
51 178 -3.641567499518299
51 179 3.6021183043656246
51 180 2.2565197404669304
51 181 1.659789619112579
51 185 -1.1268049953272001
51 186 -2.3532020723798142E-1
51 187 -3.5878135049863364
51 188 4.037952500662065
51 189 -3.785440761355719
51 190 -1.658505844343805
51 229 -5.505895124263868
51 230 1.0684084587212634
51 306 -2.731756439767729
52 52 4.0029513860228136E1
52 53 2.451672443570583
52 54 1.1230091112576396E1
52 55 -1.4746285149644767
52 56 1.2186924965996254E-1
52 57 3.891719596359976E-1
52 58 -2.332421298602661E1
52 59 6.212412052508677E-1
52 60 -1.0510636534959295E1
52 67 7.219162666941789E-1
52 68 -3.237995471656035
52 72 -4.362914678949242
52 73 2.360420890602096
52 74 -1.8525186603726653
52 106 -2.3424622674891937
52 107 -2.8356811480123356E-1
52 108 -2.041125669613111
52 110 -8.795940674622342E-1
52 111 1.2979050108624746
52 931 -8.580151036721961
52 936 -1.5347625007981042E-1
52 937 -1.2159932174518453
52 938 -1.6823071367434883E-2
52 942 1.0879259414654043
52 943 7.017487508607648E-1
52 944 9.163735088467602E-1
52 956 -1.6537496583384619
53 52 2.451672443570583
53 53 3.830106892313861E1
53 54 1.1168190370336286
53 55 -2.4894887036814745E-1
53 56 -5.031441643797365
53 57 -2.2300255347037705
53 58 6.837412052494334E-1
53 59 -1.745307800464011E1
53 60 1.2288311027786105
53 67 2.389327435293829
53 68 -2.998661844641725
53 72 -1.6537496583384614
53 73 -4.839871573199932E-1
53 74 3.7984549445641685E-1
53 106 -6.689847814435247E-1
53 107 -2.8355785686637844
53 108 -9.213937858311601
53 110 1.2979050108624755
53 111 1.5811078629085058
53 931 -1.8369742162516602
53 936 -8.930765508081198E-1
53 937 -9.329779372982109E-1
53 938 -1.0405900033163236
53 942 8.68415417527425E-1
53 943 -2.0709867981797195E-1
53 944 1.6384414704193273
53 956 -4.208064093518063
54 52 1.1230091112576396E1
54 53 1.1168190370336286
54 54 5.766321983694823E1
54 55 1.1982181798181127E-1
54 56 -2.230025534703771
54 57 -1.8215638253716517
54 58 -1.1552303201619466E1
54 59 1.2288311027786105
54 60 -3.7982749628743484E1
54 67 -5.615328993219383
54 68 -1.0708394877091976E1
54 72 2.3604208906020974
54 73 -3.603771036169676
54 74 1.1068432224248406
54 106 1.4731662666509964
54 107 2.3893274352938287
54 108 -2.998661844641725
54 110 -1.8525186603726655
54 111 3.7984549445641547E-1
54 931 -2.4478119966718555
54 936 2.7359359533591965E-1
54 937 -1.0405900033163231
54 938 7.100803693230051E-1
54 942 3.955401755167678E-1
54 943 1.6384414704193269
54 944 2.516649319001033E-1
54 956 -4.839871573199916E-1
55 52 -1.4746285149644767
55 53 -2.4894887036814745E-1
55 54 1.1982181798181127E-1
55 55 6.14743788492269E1
55 56 -6.743827122401262E-1
55 57 1.643190738044747E1
55 58 -1.749313804250257
55 59 9.309154175259056E-1
55 60 -6.461264911426798E-1
55 61 -4.421248425842238E1
55 62 7.106925235119034E-1
55 63 -1.838721176573667E1
55 67 5.201452102503835E-1
55 69 -3.8924495677057807
55 70 1.1615788931556779
55 71 4.416448236960972
55 72 1.4529514730672577
55 73 1.5709132017989083
55 74 -3.3105519605093763
55 103 -5.1911737958815
55 104 -4.5935128702314515E-1
55 105 1.2033278810250345
55 106 -1.728304240819026
55 107 2.0122580820823177E-1
55 109 1.7248270734793385
55 110 -4.432152955539173
55 111 -1.7085189532828453
55 141 -1.9716502581908872
55 142 -6.047502828409876E-1
55 143 -1.9005272059084988E-1
55 229 1.9519014037745008
55 230 -1.728620790485004
55 956 -1.2603619404209676
56 52 1.2186924965996254E-1
56 53 -5.031441643797365
56 54 -2.230025534703771
56 55 -6.743827122401262E-1
56 56 5.718987254192791E1
56 57 1.6168883486818592E-1
56 58 1.0767487508593743
56 59 -1.3419945781036218
56 60 1.6384414704191625
56 61 7.940258568455297E-1
56 62 -3.675202926988693E1
56 63 1.9870058773558692
56 67 -1.7837421615140205
56 69 1.161578893155677
56 70 -1.8370479003038682
56 71 -1.885641859041271
56 72 -1.2603619404209665
56 73 1.9592004320637277
56 74 -1.4730054969744635
56 103 -9.135027403848812E-1
56 104 -5.195544527234632
56 105 2.0863417449601958
56 106 4.7821786173018416E-1
56 107 -1.5568467869237494
56 109 1.9519014037745006
56 110 -1.7085189532828453
56 111 -1.8571439488874824
56 141 -1.0275756696964087
56 142 -5.218860563530206
56 143 -2.1183743304087574
56 229 1.1949941141008606
56 230 1.6581110229751415
56 956 4.0604256263910127E-1
57 52 3.891719596359976E-1
57 53 -2.2300255347037705
57 54 -1.8215638253716517
57 55 1.643190738044747E1
57 56 1.6168883486818592E-1
57 57 1.0724349078222384E2
57 58 -1.1669598244727473
57 59 1.6384414704191625
57 60 -8.83230966384094E-1
57 61 -1.9428878432408467E1
57 62 1.9870058773558696
57 63 -8.399333759946462E1
57 67 -5.20909276088657
57 69 4.416448236960972
57 70 -1.8856418590412718
57 71 -3.8822753156997165
57 72 1.5709132017989067
57 73 1.5356599822507744
57 74 -3.9607143941770686
57 103 1.9756444060426464
57 104 2.0863417449601958
57 105 -1.1341655915213328E1
57 106 1.3249960600751587
57 107 -1.7837421615140205
57 109 -1.7286207904850037
57 110 -3.310551960509375
57 111 -1.4730054969744633
57 141 -4.7407023708556034E-1
57 142 -2.118374330408758
57 143 -2.1205852444707993
57 229 1.6581110229751412
57 230 4.433305257193263
57 956 1.9592004320637284
58 52 -2.332421298602661E1
58 53 6.837412052494334E-1
58 54 -1.1552303201619466E1
58 55 -1.749313804250257
58 56 1.0767487508593743
58 57 -1.1669598244727473
58 58 3.246780160796924E1
58 59 -7.908384953812619E-1
58 60 1.185236788754265E1
58 61 1.036178048279365
58 62 1.7762312633661756E-1
58 63 9.555037216729505E-1
58 64 -1.6301692866317938
58 65 -2.944057815845976E-1
58 66 7.242913227718983E-2
58 72 -4.839207004675465
58 73 1.017704989219119E-16
58 942 -3.1733655351213963E-1
58 943 -1.0646260324572414
58 944 -1.821084429491145E-1
58 945 -1.6437400211523427
58 946 2.1175722697767668E-1
58 947 2.1070727548539003E-2
58 956 4.163336342344337E-17
59 52 6.212412052508677E-1
59 53 -1.745307800464011E1
59 54 1.2288311027786105
59 55 9.309154175259056E-1
59 56 -1.3419945781036218
59 57 1.6384414704191625
59 58 -7.908384953812619E-1
59 59 2.6144839429124175E1
59 60 -1.3824349908438989
59 61 -7.23768736660022E-2
59 62 -1.5882725334086933E-1
59 63 -8.192207351004213E-1
59 64 -4.819057815865718E-1
59 65 -1.874110988309721
59 66 -1.4336362866468968
59 72 8.326672684688674E-17
59 942 -7.312926991217987E-1
59 943 -1.1303629905272319
59 944 -1.0240259189031105
59 945 5.242572269788628E-1
59 946 -2.250782812332435
59 947 1.792045358296555
59 956 -1.9356828018701862
60 52 -1.0510636534959295E1
60 53 1.2288311027786105
60 54 -3.7982749628743484E1
60 55 -6.461264911426798E-1
60 56 1.6384414704191625
60 57 -8.83230966384094E-1
60 58 1.185236788754265E1
60 59 -1.3824349908438989
60 60 4.9739957023204866E1
60 61 7.322894359934842E-1
60 62 -8.192207351004217E-1
60 63 1.5045809442385532
60 64 -7.460232486341485E-1
60 65 -1.4336362866468964
60 66 -5.703382767241553
60 72 2.035409978438238E-16
60 73 -1.9356828018701862
60 942 1.1551060463215657E-1
60 943 -1.0240259189031105
60 944 5.268035253269427E-1
60 945 -7.973816534321678E-1
60 946 1.7920453582965545
60 947 -5.266295328531041
61 55 -4.421248425842238E1
61 56 7.940258568455297E-1
61 57 -1.9428878432408467E1
61 58 1.036178048279365
61 59 -7.23768736660022E-2
61 60 7.322894359934842E-1
61 61 5.741163074376349E1
61 62 -1.5683781345472085
61 63 2.0984610278062263E1
61 64 -9.173257684256054
61 65 3.9254104211115015E-1
61 66 -2.080699160462353
61 69 -3.9312044565802475
61 70 7.242304773167846E-1
61 71 8.61782635561286E-13
61 72 5.895579428488651E-1
61 73 -9.004373271315438E-13
61 141 -5.644903008502611E-1
61 142 6.844658908866896E-1
61 143 -5.844019912452684E-1
61 144 9.878200391129388E-1
61 145 -3.3519523851588545E-3
61 146 5.446715800031439E-1
61 152 -2.1437500738957107
61 153 -1.9417470909036894E-1
61 154 -1.6759170994277E-1
61 956 -7.569815974714165E-1
62 55 7.106925235119034E-1
62 56 -3.675202926988693E1
62 57 1.9870058773558696
62 58 1.7762312633661756E-1
62 59 -1.5882725334086933E-1
62 60 -8.192207351004217E-1
62 61 -1.5683781345472085
62 62 4.984824961660049E1
62 63 -2.651166440763514
62 64 6.425410421127333E-1
62 65 -8.84800208202018
62 66 1.9115150488545087
62 69 7.242304773167846E-1
62 70 -2.317669589079274
62 71 2.97389323191528E-14
62 72 -7.569815974714165E-1
62 73 -3.108103679029228E-14
62 141 5.594658908850387E-1
62 142 -8.971098409720993E-1
62 143 1.7125350016148384
62 144 -1.700186190531157E-1
62 145 2.454850761768471E-1
62 146 -6.422006255208413E-1
62 152 -3.191747090913384E-1
62 153 -2.1348064926749486
62 154 -1.4984681264404387
62 956 1.0147098351969697
63 55 -1.838721176573667E1
63 56 1.9870058773558692
63 57 -8.399333759946462E1
63 58 9.555037216729505E-1
63 59 -8.192207351004213E-1
63 60 1.5045809442385532
63 61 2.0984610278062263E1
63 62 -2.651166440763514
63 63 1.0902911571496898E2
63 64 -2.9735563033449814
63 65 1.9115150488545083
63 66 -2.0762531476433146E1
63 69 8.612137621253537E-13
63 70 2.969094353832224E-14
63 71 -4.293211161225799
63 72 -8.995259216315727E-13
63 73 3.0795892651474825
63 141 -6.356865790363764E-2
63 142 1.7125350016148388
63 143 -4.17600040517151E-1
63 144 3.9586205621397635E-1
63 145 -6.422006255208417E-1
63 146 1.990639792030179
63 152 -9.116393289638682E-1
63 153 -1.498468126440438
63 154 -6.137245438744449
63 956 -3.1028129588667076E-14
64 58 -1.6301692866317938
64 59 -4.819057815865718E-1
64 60 -7.460232486341485E-1
64 61 -9.173257684256054
64 62 6.425410421127333E-1
64 63 -2.9735563033449814
64 64 1.2984679767993859E1
64 65 -8.33796912543169E-2
64 66 4.829700768532145
64 69 4.0001618844281095E-1
64 70 5.506798913840645E-1
64 71 -2.790502296631364E-1
64 72 -3.8239991967109748
64 73 -1.6560914562382707
64 152 7.174361867343245E-1
64 153 2.0024127266799557E-2
64 154 3.994740909006719E-1
64 945 5.252940244278279E-1
64 946 -7.237687367446582E-2
64 947 4.2554637844771925E-1
64 956 -5.755827142482424E-1
65 58 -2.944057815845976E-1
65 59 -1.874110988309721
65 60 -1.4336362866468964
65 61 3.9254104211115015E-1
65 62 -8.84800208202018
65 63 1.9115150488545083
65 64 -8.33796912543169E-2
65 65 1.2450432079702582E1
65 66 -6.538748469507382E-1
65 69 5.506798913840644E-1
65 70 9.77629595866013E-1
65 71 5.68791577741183E-1
65 72 -5.755827142482421E-1
65 73 -5.945134465232886E-1
65 152 -1.674758727351746E-1
65 153 4.142957512027065E-2
65 154 -7.135562497354642E-2
65 945 1.7762312632711724E-1
65 946 -3.631808628534176E-1
65 947 2.73073578498778E-1
65 956 -2.384197317505546
66 58 7.242913227718983E-2
66 59 -1.4336362866468968
66 60 -5.703382767241553
66 61 -2.080699160462353
66 62 1.9115150488545087
66 63 -2.0762531476433146E1
66 64 4.829700768532145
66 65 -6.538748469507382E-1
66 66 2.4805734420698244E1
66 69 -1.2136717584836338
66 70 1.1149387345476578
66 71 2.9360914859407554
66 72 -2.6269653956286767
66 73 -4.431224688720692
66 152 5.518956493797388E-1
66 153 4.994893755648697E-1
66 154 1.855085691026874
66 945 4.673107643855882E-1
66 946 -2.7307357830769635E-1
66 947 1.3002273347295175
66 956 -1.165358447061705
67 52 7.219162666941789E-1
67 53 2.389327435293829
67 54 -5.615328993219383
67 55 5.201452102503835E-1
67 56 -1.7837421615140205
67 57 -5.20909276088657
67 67 2.3000141553548165E1
67 68 1.2674125846788773
67 74 -2.94618161418809
67 88 -8.695348881805347E-1
67 89 1.914015804545684
67 90 -5.5005361746378725
67 91 -1.0599650655748338
67 92 -2.230834895147158
67 93 -5.730879729667421
67 103 8.004519910596103E-2
67 104 -2.99308588054763E-2
67 105 7.344651343722871E-1
67 106 5.152460592434912E-1
67 107 -2.0689839644944102E-1
67 108 -5.1936927923416976E-2
67 110 -1.7763568394002505E-15
67 931 9.214721846135544E-2
68 52 -3.237995471656035
68 53 -2.998661844641725
68 54 -1.0708394877091976E1
68 67 1.2674125846788773
68 68 5.1175143953243314E1
68 72 3.1431116149539564
68 73 -1.933001704308829
68 74 -2.6294648751305827E-1
68 91 2.708453766869491
68 92 3.195441163328251
68 93 -1.0547089013934366E1
68 97 -1.6863354381823816
68 98 1.0922337447317572
68 99 -6.007311929358811
68 106 9.214721842696477E-2
68 107 -5.19369279234162E-2
68 108 -1.7188065608195013
68 110 1.2906454565668957E-1
68 111 -2.821896892900605E-2
68 911 5.950499233630371
68 912 -2.865583986691764
68 913 -1.684012370526758E1
68 917 -2.9938814457449627
68 918 -1.518994018774321
68 919 5.223252039837477
68 931 -1.586853757759908
68 932 6.425767140922808E-1
68 936 -3.6268064606605357
68 937 4.548627288137276
68 938 -1.2009517574377316E1
68 956 -8.5451267554773E-2
68 959 1.1085961944663483
68 960 4.3135137913722243E-1
69 3 -6.2580425103144846
69 4 8.534651196987239E-1
69 15 -3.4783664115224626
69 16 8.153203120221529E-1
69 24 8.331115015485411E-1
69 25 -2.844938295606701
69 46 -2.32220818375957
69 51 -8.807125639005159E-1
69 55 -3.8924495677057807
69 56 1.161578893155677
69 57 4.416448236960972
69 61 -3.9312044565802475
69 62 7.242304773167846E-1
69 63 8.612137621253537E-13
69 64 4.0001618844281095E-1
69 65 5.506798913840644E-1
69 66 -1.2136717584836338
69 69 2.7252676752246234E1
69 70 -1.282367944931981
69 71 -1.9639686172176174
69 72 -8.015910332789744E-1
69 73 4.765130326487946E-2
69 74 4.6821299778680325E-1
69 109 -4.088799177090742
69 110 -2.0075469522991964
69 111 4.3989453855921323E-1
69 128 3.750075567326899E-2
69 130 -1.7772914916208944
69 141 -3.7606094770833015E-2
69 142 -1.4180903742732753
69 143 1.50919304818854
69 144 2.1431472707347515E-1
69 145 -4.287600770858139E-1
69 146 -1.7696400970756705E-13
69 152 -2.464722229800722
69 153 -2.823205921493448E-1
69 154 -2.1292074234883276
69 161 -8.322291374705704E-1
69 162 -2.624628703518871E-1
69 167 2.2297683595029936
69 204 1.3375304395748842
69 205 3.969414461935364E-1
69 229 1.620021224785879E-1
69 230 -9.298349896812326E-2
69 956 8.410041515988669E-1
70 3 2.2297683595029927
70 4 -4.2009540589729666E-1
70 15 -2.3222081837595705
70 16 1.169343886844196
70 24 -8.807125639005166E-1
70 25 -7.804218252219983E-2
70 46 -4.369833205303614
70 51 4.849675712987306
70 55 1.1615788931556779
70 56 -1.8370479003038682
70 57 -1.8856418590412718
70 61 7.242304773167846E-1
70 62 -2.317669589079274
70 63 2.969094353832224E-14
70 64 5.506798913840645E-1
70 65 9.77629595866013E-1
70 66 1.1149387345476578
70 69 -1.282367944931981
70 70 3.036739569802439E1
70 71 4.0941223091800144E-1
70 72 8.41004151598867E-1
70 73 -1.268704586991758E-1
70 74 -4.596476942926557
70 109 1.6200212247858758E-1
70 110 4.398945385592138E-1
70 111 -4.953680826588302
70 128 1.3375304395748842
70 130 -8.32229137470571E-1
70 141 -1.418090374273275
70 142 6.098043988102648E-1
70 143 1.4620420835888026
70 144 -4.2876007708581354E-1
70 145 8.441232930893187E-1
70 146 7.168035744441263E-14
70 152 -2.823205921493448E-1
70 153 -1.2858161215610264
70 154 -5.949912692094189E-1
70 161 -4.94971586237051
70 162 -1.0328497543173574
70 167 -3.7504656230319267
70 204 -2.5747936038734562
70 205 -4.824572391959994E-1
70 229 -6.67166633482134
70 230 5.061688175910515
70 956 -4.937939631843975
71 3 -1.907295562971556E-1
71 4 -2.715917386492248
71 15 -5.977740727156389E-2
71 16 -1.780964197538488
71 24 -2.8449382956066995
71 25 1.7201268537469407
71 46 4.6549104365999155E-1
71 51 -7.804218252219944E-2
71 55 4.416448236960972
71 56 -1.885641859041271
71 57 -3.8822753156997165
71 61 8.61782635561286E-13
71 62 2.97389323191528E-14
71 63 -4.293211161225799
71 64 -2.790502296631364E-1
71 65 5.68791577741183E-1
71 66 2.9360914859407554
71 69 -1.9639686172176174
71 70 4.0941223091800144E-1
71 71 2.988365169064622E1
71 72 1.3946502689215975E-1
71 73 -1.1519778517154777
71 74 -8.49340851705529
71 109 -9.298349896812366E-2
71 110 4.682129977868039E-1
71 111 -4.5964769429265555
71 128 3.60999916476952E-2
71 130 9.467998678476733E-2
71 141 1.5091930481885405
71 142 1.4620420835888028
71 143 1.1238742888853268
71 144 -1.7773562540712175E-13
71 145 7.125172943942133E-14
71 146 1.9746154549840669
71 152 -1.2326516832373215
71 153 -2.3082226910354398E-1
71 154 -2.5396848389245963
71 161 -1.995164209901143E-1
71 162 -1.745719602113586
71 167 -1.483471171388508E-1
71 204 4.0337376068880415E-1
71 205 3.087471161371321E-1
71 229 5.061688175910516
71 230 -1.1343948019575244E1
71 956 -1.2319520807848667
72 15 -3.4785486354969324
72 16 5.918012732668466E-1
72 17 -9.665696620613563
72 18 -6.924045455139406E-1
72 46 1.6288721958088965
72 47 -2.093886203868144
72 52 -4.362914678949242
72 53 -1.6537496583384614
72 54 2.3604208906020974
72 55 1.4529514730672577
72 56 -1.2603619404209665
72 57 1.5709132017989067
72 58 -4.839207004675465
72 59 8.326672684688674E-17
72 60 2.035409978438238E-16
72 61 5.895579428488651E-1
72 62 -7.569815974714165E-1
72 63 -8.995259216315727E-13
72 64 -3.8239991967109748
72 65 -5.755827142482421E-1
72 66 -2.6269653956286767
72 68 3.1431116149539564
72 69 -8.015910332789744E-1
72 70 8.41004151598867E-1
72 71 1.3946502689215975E-1
72 72 3.6958980539785784E1
72 73 3.9627049046716163
72 74 -4.710183230458548
72 108 2.120432884848462E-1
72 110 -7.525719936659549
72 111 1.2630537429849047
72 931 2.434544218206448
72 932 -9.551902478930786E-1
72 936 -1.4716743141744497
72 937 1.6832139237664328
72 938 3.626156124873167E-1
72 942 -6.756651203137812E-1
72 943 1.241759825072466
72 944 3.6715898111872823E-13
72 945 -3.647477226016952
72 946 9.176344326992736E-1
72 947 -2.4896862672780853
72 951 -4.02154012216664
72 952 8.148365724171036E-1
72 953 -6.566028379000353E-1
72 956 -6.905210736699421E-1
72 959 2.8779997151481655
72 960 -1.5713349448156209
73 15 -4.6653854924213123E-1
73 16 2.1458184656331175E-1
73 17 -1.5177073723694474
73 18 -4.223552197654932
73 46 6.754236890630229E-1
73 47 -8.514139449395468E-1
73 52 2.360420890602096
73 53 -4.839871573199932E-1
73 54 -3.603771036169676
73 55 1.5709132017989083
73 56 1.9592004320637277
73 57 1.5356599822507744
73 58 1.017704989219119E-16
73 60 -1.9356828018701862
73 61 -9.004373271315438E-13
73 62 -3.108103679029228E-14
73 63 3.0795892651474825
73 64 -1.6560914562382707
73 65 -5.945134465232886E-1
73 66 -4.431224688720692
73 68 -1.933001704308829
73 69 4.765130326487946E-2
73 70 -1.268704586991758E-1
73 71 -1.1519778517154777
73 72 3.9627049046716163
73 73 3.6223041739664936E1
73 74 -1.5951212447312017E1
73 108 -8.545126755476995E-2
73 110 -4.710183230458547
73 111 3.891058125434072
73 931 3.1431116149539577
73 932 2.1632563201590466E-1
73 936 3.626156124873166E-1
73 937 -9.660063755055068E-1
73 938 1.0324784861533836
73 942 3.6727823029637977E-13
73 943 1.2886293942009837E-14
73 944 1.3244548460493917
73 945 -1.5725697167952986
73 946 5.025435863347423E-1
73 947 -2.9999948246110604
73 951 -5.69136954781462E-1
73 952 3.3823195360748097
73 953 -7.395714245482313
73 956 -3.769690227410919
73 959 -9.551902478930783E-1
73 960 -3.5326124910171544
74 1 -2.2198322537817723
74 2 2.9965169531894515
74 15 3.2787215101560827
74 16 -4.513880207238481
74 17 3.2196019535263964
74 18 -6.791730753711911
74 22 -7.155342028606322E-1
74 23 6.438192849919934
74 24 4.0405851167397415
74 25 -1.1990601580054086E1
74 26 2.193989751006246
74 36 -5.2977634556002435
74 37 8.74459665982275E-1
74 38 -1.2333656471144996E1
74 39 -1.7853032256380184
74 40 -3.5647856386289516
74 41 -2.046198426804841
74 46 -8.394491556907708E-1
74 47 2.669451425508682
74 48 5.227043997392913E-1
74 51 -2.5308007174736993
74 52 -1.8525186603726653
74 53 3.7984549445641685E-1
74 54 1.1068432224248406
74 55 -3.3105519605093763
74 56 -1.4730054969744635
74 57 -3.9607143941770686
74 67 -2.94618161418809
74 68 -2.6294648751305827E-1
74 69 4.6821299778680325E-1
74 70 -4.596476942926557
74 71 -8.49340851705529
74 72 -4.710183230458548
74 73 -1.5951212447312017E1
74 74 8.247577488952285E1
74 88 3.0019130355236605
74 89 5.442818759158903E-1
74 90 -1.256953641033642
74 91 1.9443256345325712
74 92 -4.0718775593781187E-1
74 93 1.4783297873628165
74 94 1.8205584160692796
74 95 4.341529580735161
74 96 -1.0502062750577029E1
74 97 4.085450399940127
74 98 -3.7058957399497015
74 99 -1.6327924412652845E1
74 103 2.6178285806859114E-1
74 104 9.137769007220189E-1
74 105 2.433421683964793
74 106 -8.881784197001252E-16
74 108 -2.8218968929005994E-2
74 109 -4.2206675594521603E-1
74 110 -2.0096972203787606
74 111 2.485544092279826
74 229 -1.6764297988718122
74 230 -3.2279988635531525
74 931 1.2906454565668857E-1
74 932 3.676391180631809
74 956 3.891058125434073
74 959 7.32344975452889E-2
74 960 5.608903602891962E-3
75 1 -2.95573615120875
75 2 4.8566858459140433E-1
75 26 -2.168525390033863
75 75 2.1744288763051838E1
75 94 2.5391272953759952E-2
75 95 1.3414382982393795
75 96 -3.2933130515541253E-2
75 100 -5.213631989539166
75 101 6.362171332482176E-1
75 102 5.665654049564839E-1
75 109 -5.649010592937651
75 137 -1.0729027080693456
75 177 -4.40961134543061
75 178 1.3370841904209896
75 179 2.156561359201821
75 200 -7.168768276687574E-1
75 201 -1.7965095080869253
75 202 1.035062784273845E-2
75 203 -2.3071620945885885
75 217 -2.8248131292206615
75 218 6.399446483694626E-1
75 219 2.0420258442376282E-1
75 229 -9.716996135737716E-17
75 230 1.250630836258709E-15
76 76 1.255352447040728E1
76 77 -2.094983335213082E-1
76 78 -4.301135584948019
76 79 7.161553178850593E-1
76 80 -1.6938694376905736E-1
76 81 -5.536651595706088E-1
76 85 -9.699768938800405
76 86 4.778065281097464E-1
76 87 2.791244877117315
76 88 -2.142661707398432
76 89 -3.1853768540649696E-1
76 90 9.169478596708807E-1
76 94 -2.4693109827160034
76 95 -2.822111696818436E-1
76 96 1.2329258779220886
76 100 2.8948242620596004E-1
76 101 4.4191253010518694E-1
76 102 2.8673170354871175E-1
76 138 7.525794144165404E-1
76 139 5.991507416377306E-2
76 140 -3.730495737403673E-1
77 76 -2.094983335213082E-1
77 77 1.2138537938151606E1
77 78 1.4683971868255408
77 79 1.811305622903392E-2
77 80 4.129003197019043E-2
77 81 -4.9873101394902547E-1
77 85 2.903065281116548E-1
77 86 -9.715113731427333
77 87 -2.244289562767973
77 88 -1.9353768540776947E-1
77 89 -2.1324318456471474
77 90 1.496193041845312
77 94 -2.822111696818434E-1
77 95 -1.2875444097450066
77 96 2.307339166114804E-1
77 100 4.4191253010518694E-1
77 101 5.852790729890758E-1
77 102 -3.613046534827442E-1
77 138 -6.50849258349544E-2
77 139 3.6998294370861484E-1
77 140 -9.099891508259136E-2
78 76 -4.301135584948019
78 77 1.4683971868255408
78 78 2.5786568768162788E1
78 79 -3.992213037298771E-1
78 80 7.124728770624772E-2
78 81 1.8521925218000228
78 85 1.8239829723651702
78 86 -2.2442895627679738
78 87 -2.3091212757300553E1
78 88 1.7290024063109932E-1
78 89 1.496193041845313
78 90 -6.128793994963054
78 94 2.129886077651899
78 95 5.947295769407266E-1
78 96 -2.540823842645264
78 100 1.0995497524601254
78 101 -9.312829551380171E-1
78 102 2.5477807193488875
78 138 -5.259621544303964E-1
78 139 -4.549945754118376E-1
78 140 1.5742885855971749
79 76 7.161553178850593E-1
79 77 1.811305622903392E-2
79 78 -3.992213037298771E-1
79 79 1.299426294395257E1
79 80 -8.355799447979237E-2
79 81 -4.832508814830006
79 82 5.249980292642613E-1
79 83 -7.142547538188776E-2
79 84 -4.2516883943324224E-1
79 88 -9.183967952131002
79 89 6.428581748659158E-1
79 90 2.976199076288186
79 91 -1.6294692762778384
79 92 -4.8214363114943715E-1
79 93 7.440411689435944E-1
79 94 4.0025372865284986E-1
79 95 5.512011079174415E-1
79 96 2.7918481169049647E-1
79 97 -3.822232791345897
79 98 -5.75045238001274E-1
79 99 1.657473901070848
80 76 -1.6938694376905736E-1
80 77 4.129003197019043E-2
80 78 7.124728770624772E-2
80 79 -8.355799447979237E-2
80 80 1.2458151157854813E1
80 81 6.554074268067644E-1
80 82 1.7857452461556722E-1
80 83 -3.6350617450592704E-1
80 84 -2.7317213551255864E-1
80 88 3.928581748684613E-1
80 89 -8.857564265147957
80 90 -1.9122049485822101
80 91 -2.946436311513463E-1
80 92 -1.8742720415151235
80 93 1.4341537114366576
80 94 5.512011079174415E-1
80 95 9.762899419322653E-1
80 96 -5.679499122849483E-1
80 97 -5.75045238001274E-1
80 98 -2.3803886505882605
80 99 5.925185704300475E-1
81 76 -5.536651595706088E-1
81 77 -4.9873101394902547E-1
81 78 1.8521925218000228
81 79 -4.832508814830006
81 80 6.554074268067644E-1
81 81 2.482598080398805E1
81 82 -4.6768830341454426E-1
81 83 2.73172135510849E-1
81 84 1.3005023766681798
81 88 2.0833419334399568
81 89 -1.9122049485822092
81 90 -2.0784916303652455E1
81 91 -7.441121200010181E-2
81 92 1.4341537114366574
81 93 -5.704925873200887
81 94 1.2145614185200282
81 95 -1.1142941833083562
81 96 2.935091744141359
81 97 2.6303701378552744
81 98 1.1624968720853204
81 99 -4.423925269744267
82 79 5.249980292642613E-1
82 80 1.7857452461556722E-1
82 81 -4.6768830341454426E-1
82 82 9.9734625165784
82 83 -1.3018661616901575E-1
82 84 -4.12359826208197
82 91 -1.6465008261749343
82 92 5.245545389375937E-1
82 93 7.998592530882589E-1
82 97 -3.6500495591519004
82 98 9.170991938973057E-1
82 99 1.5729945834790233
82 903 3.56829714448005E-1
82 904 -1.1677012414837182E-1
82 905 -4.060928669969287E-1
82 911 -4.751816145330932
82 912 -4.196436311500752E-1
82 913 2.4553506927538944
82 917 -8.069237296328997E-1
82 918 -9.536278859830042E-1
82 919 1.6917490317226663E-1
83 79 -7.142547538188776E-2
83 80 -3.6350617450592704E-1
83 81 2.73172135510849E-1
83 82 -1.3018661616901575E-1
83 83 9.384327528860915
83 84 1.3106072380676848E-1
83 91 2.120545389407745E-1
83 92 -2.2524621797054314
83 93 -1.792692139295825
83 97 9.170991938973059E-1
83 98 -1.8570927460506907
83 99 -5.016895351802214E-1
83 903 1.957298758484469E-1
83 904 -7.343384844130076E-1
83 905 -6.567707093209235E-2
83 911 -1.696436311526198E-1
83 912 -4.267047062506534
83 913 1.4341537114366605
83 917 -9.536278859830044E-1
83 918 9.011911832067532E-2
83 919 5.216721746538612E-1
84 79 -4.2516883943324224E-1
84 80 -2.7317213551255864E-1
84 81 1.3005023766681798
84 82 -4.12359826208197
84 83 1.3106072380676848E-1
84 84 1.5850457241057883E1
84 91 -1.8593127856055713E-2
84 92 -1.792692139295826
84 93 -5.269063047574328
84 97 2.4909183141732156
84 98 -1.0271061027017252
84 99 -2.99925535577536
84 903 -5.055642167468047E-1
84 904 4.5973949658941193E-1
84 905 7.96875512358199E-1
84 911 1.5624935498970953
84 912 1.4341537114366611
84 913 -1.0957291577617738E1
84 917 1.0195125820477615
84 918 1.0680164456772687
84 919 1.2777748508831586
85 76 -9.699768938800405
85 77 2.903065281116548E-1
85 78 1.8239829723651702
85 85 2.6402272957982063E1
85 86 -2.5772917861980056
85 87 -1.4314105423923877
85 88 7.239301198645667E-1
85 89 8.231932407983927E-2
85 90 -5.299056728113573E-1
85 94 -1.3058121537497103
85 95 -2.1236931728292303
85 96 -9.546475306326849E-1
85 100 -9.509098402490812
85 101 3.313707311466962
85 102 -2.0952356310077453
85 103 -3.2154575132738725
85 104 -1.405511636831363E-1
85 105 4.2958914870183224E-1
85 109 2.7028895476273906E-2
85 138 -1.1722915673780556
85 139 -1.5495753708061416E-1
85 140 -1.0083661854122106E-1
85 147 9.236806645415323E-1
85 148 6.787912768994228E-1
85 149 -1.644476207706596E-1
85 155 -3.174484062171579
85 156 6.244824633656054E-1
85 157 9.221595870767352E-1
85 229 6.886755867499912E-3
85 230 2.100751908012319
86 76 4.778065281097464E-1
86 77 -9.715113731427333
86 78 -2.2442895627679738
86 85 -2.5772917861980056
86 86 3.0946371620221647E1
86 87 1.0102400420341663E-1
86 88 6.386606038891098E-1
86 89 -1.551258903681353
86 90 -7.049341363484418E-2
86 94 -2.123693172829232
86 95 -1.340862711707388
86 96 -6.570173061581132E-1
86 100 3.313707311466964
86 101 -9.615037840955742
86 102 2.1581471481506296
86 103 2.1396558674840666E-1
86 104 -5.139642577749942
86 105 2.8885717119779137
86 109 6.886755867500285E-3
86 138 -2.1745753707997795E-1
86 139 -1.2833829166268347
86 140 9.55488608364412E-1
86 147 1.3677452646978677E-1
86 148 -7.458589498402795E-1
86 149 -2.462577967995681E-1
86 155 1.3064118355569843E-1
86 156 -5.716573377338125
86 157 -2.224347560875775
86 229 4.161359389105349
86 230 -6.608258324600977E-1
87 76 2.791244877117315
87 77 -2.244289562767973
87 78 -2.3091212757300553E1
87 85 -1.4314105423923877
87 86 1.0102400420341663E-1
87 87 4.0421021790506494E1
87 88 -4.41899379753511E-1
87 89 -7.049341363484524E-2
87 90 2.1040258670393177
87 94 -9.546475306326856E-1
87 95 -6.570173061581123E-1
87 96 1.3109817596542785
87 100 -2.0952356310077462
87 101 2.158147148150629
87 102 -8.462626412170593
87 103 -3.462413230721797E-1
87 104 2.8885717119779133
87 105 -6.370241608080615
87 109 2.1007519080123203
87 138 5.688062385946451E-1
87 139 9.554886083644119E-1
87 140 -3.835512489332647
87 147 -3.558790537487936E-1
87 148 -2.462577967995684E-1
87 149 1.7125942512785755
87 155 1.6451043688302341E-1
87 156 -2.2243475608757746
87 157 -4.846220758673649
87 229 -6.608258324600984E-1
87 230 1.0571903570793963
88 67 -8.695348881805347E-1
88 74 3.0019130355236605
88 76 -2.142661707398432
88 77 -1.9353768540776947E-1
88 78 1.7290024063109932E-1
88 79 -9.183967952131002
88 80 3.928581748684613E-1
88 81 2.0833419334399568
88 85 7.239301198645667E-1
88 86 6.386606038891098E-1
88 87 -4.41899379753511E-1
88 88 2.632339678144592E1
88 89 -3.262799799597895
88 90 -1.5705800864792554
88 91 -1.9524437952759288
88 92 6.259188442843253E-1
88 93 -2.2459263699272564E-1
88 94 -7.651775645509373
88 95 2.8657761148437064
88 96 -2.2582971007579538
88 97 2.006321384680597
88 98 -1.7948466190428771
88 99 -1.4675753523048958
88 103 -4.316938374271185
88 104 1.2461811043247333
88 105 1.5743242348741613
88 106 -2.2259195279399964
88 107 4.1991473933018847E-1
88 110 -1.579941283465165
88 111 -9.381254774919832E-1
89 67 1.914015804545684
89 74 5.442818759158903E-1
89 76 -3.1853768540649696E-1
89 77 -2.1324318456471474
89 78 1.496193041845313
89 79 6.428581748659158E-1
89 80 -8.857564265147957
89 81 -1.9122049485822092
89 85 8.231932407983927E-2
89 86 -1.551258903681353
89 87 -7.049341363484524E-2
89 88 -3.262799799597895
89 89 3.0059710310313886E1
89 90 6.526822093560095E-1
89 91 1.171767390921298
89 92 -5.791074988783266
89 93 1.4078451621622148
89 94 2.8657761148437064
89 95 -5.992993382056269
89 96 1.2457680120113412
89 97 -1.7948466190428762
89 98 1.540093801362392
89 99 -1.992914664029998
89 103 8.253325576864875E-1
89 104 -6.49459785906186
89 105 -3.285173079589401
89 106 7.262560191420043E-1
89 107 -1.9705867568593736
89 110 -9.381254774919829E-1
89 111 1.1907038895609512
90 67 -5.5005361746378725
90 74 -1.256953641033642
90 76 9.169478596708807E-1
90 77 1.496193041845312
90 78 -6.128793994963054
90 79 2.976199076288186
90 80 -1.9122049485822101
90 81 -2.0784916303652455E1
90 85 -5.299056728113573E-1
90 86 -7.049341363484418E-2
90 87 2.1040258670393177
90 88 -1.5705800864792554
90 89 6.526822093560095E-1
90 90 4.101952824602867E1
90 91 -1.963237309962258E-1
90 92 1.407845162162216
90 93 -9.730742149652176E-1
90 94 -2.2582971007579538
90 95 1.2457680120113417
90 96 -6.033564538464383
90 97 -1.4675753523048956
90 98 -1.9929146640299984
90 99 4.700022888468168
90 103 8.020077098378842E-1
90 104 -3.285173079589401
90 105 -7.1457381338195205
90 106 -1.6743857379709202
90 107 1.9140158045456839
90 110 3.001913035523661
90 111 5.442818759158903E-1
91 67 -1.0599650655748338
91 68 2.708453766869491
91 74 1.9443256345325712
91 79 -1.6294692762778384
91 80 -2.946436311513463E-1
91 81 -7.441121200010181E-2
91 82 -1.6465008261749343
91 83 2.120545389407745E-1
91 84 -1.8593127856055713E-2
91 88 -1.9524437952759288
91 89 1.171767390921298
91 90 -1.963237309962258E-1
91 91 2.2617588543678703E1
91 92 2.4915444174655437
91 93 -2.155484403841611E-1
91 97 -7.756124675050884
91 98 -1.4369503958786027
91 99 -2.4765046290240678
91 106 -2.6676447617946932
91 107 -4.76073655751761E-1
91 108 -1.6771986748873247
91 110 -6.2165573853560085E-2
91 111 1.128162434067205
91 911 5.878273689578771E-1
91 912 -1.118662423725786
91 913 -6.114331955666154E-1
91 931 -7.491067004208749
92 67 -2.230834895147158
92 68 3.195441163328251
92 74 -4.0718775593781187E-1
92 79 -4.8214363114943715E-1
92 80 -1.8742720415151235
92 81 1.4341537114366574
92 82 5.245545389375937E-1
92 83 -2.2524621797054314
92 84 -1.792692139295826
92 88 6.259188442843253E-1
92 89 -5.791074988783266
92 90 1.407845162162216
92 91 2.4915444174655437
92 92 2.6627901076456205E1
92 93 -2.524296438295093
92 97 -1.4369503958786027
92 98 -5.5309089349634615
92 99 5.186386192477169E-1
92 106 -8.198236557754244E-1
92 107 -2.6747196675443603
92 108 -8.972649468903866
92 110 1.1281624340672052
92 111 1.8817384087235147
92 911 -5.874124237040311E-1
92 912 -1.413552203764218
92 913 3.989325725010483E-1
92 931 -1.4438501282471718
93 67 -5.730879729667421
93 68 -1.0547089013934366E1
93 74 1.4783297873628165
93 79 7.440411689435944E-1
93 80 1.4341537114366576
93 81 -5.704925873200887
93 82 7.998592530882589E-1
93 83 -1.792692139295825
93 84 -5.269063047574328
93 88 -2.2459263699272564E-1
93 89 1.4078451621622148
93 90 -9.730742149652176E-1
93 91 -2.155484403841611E-1
93 92 -2.524296438295093
93 93 2.9991308983487468E1
93 97 -2.476504629024068
93 98 5.186386192477164E-1
93 99 -5.017083832601858
93 106 -1.811215065563934
93 107 -2.230834895147158
93 108 3.195441163328251
93 110 1.9443256345325723
93 111 -4.071877559378115E-1
93 911 -6.786355765212103E-1
93 912 3.9893257250104835E-1
93 913 1.7724769410937888
93 931 1.918270291921675
94 1 -6.7757734152648315
94 2 1.628690455764675
94 26 1.0906155797472024
94 36 -1.592632397932864
94 37 -1.8742453274516624
94 38 -5.57479914336363E-1
94 74 1.8205584160692796
94 75 2.5391272953759952E-2
94 76 -2.4693109827160034
94 77 -2.822111696818434E-1
94 78 2.129886077651899
94 79 4.0025372865284986E-1
94 80 5.512011079174415E-1
94 81 1.2145614185200282
94 85 -1.3058121537497103
94 86 -2.123693172829232
94 87 -9.546475306326856E-1
94 88 -7.651775645509373
94 89 2.8657761148437064
94 90 -2.2582971007579538
94 94 2.7037665794801214E1
94 95 -1.008872234218777
94 96 -1.949290885555249
94 97 -6.01232566340336E-1
94 98 7.843919762308001E-1
94 99 2.846027602426021E-2
94 100 -1.6390772331609413
94 101 -8.464809677538474E-1
94 102 3.0375587788641156E-1
94 103 9.78485254012207E-1
94 104 -6.852974541477233E-1
94 105 -2.6542257276838233
94 109 -2.4514087294436853
94 110 -3.9547729263022857
94 111 -9.696227151284944E-1
94 202 1.3414382982393784
94 203 -3.941790445401866E-1
94 229 1.1569999642330513
94 230 1.6422076815897055
95 1 1.0906155797472021
95 2 -3.1990092065297504E-1
95 26 -1.6399320247083904
95 36 -1.874245327451662
95 37 -8.611047272999579E-1
95 38 -3.531676203682721E-3
95 74 4.341529580735161
95 75 1.3414382982393795
95 76 -2.822111696818436E-1
95 77 -1.2875444097450066
95 78 5.947295769407266E-1
95 79 5.512011079174415E-1
95 80 9.762899419322653E-1
95 81 -1.1142941833083562
95 85 -2.1236931728292303
95 86 -1.340862711707388
95 87 -6.570173061581123E-1
95 88 2.8657761148437064
95 89 -5.992993382056269
95 90 1.2457680120113417
95 94 -1.008872234218777
95 95 2.7807192459878834E1
95 96 -1.0999137734221138
95 97 7.843919762308008E-1
95 98 -4.577170281320352
95 99 1.2445725549063114E-1
95 100 -8.464809677538496E-1
95 101 -4.68558167405279
95 102 1.0115881379743175
95 103 -6.852974541477228E-1
95 104 4.014919941195259
95 105 -5.937230858516659E-2
95 109 1.1569999642330508
95 110 -9.696227151284944E-1
95 111 -5.063317902268153
95 202 -2.5846574452430193
95 203 4.797433848398034E-1
95 229 -4.765237784605033
95 230 -4.543785779661572
96 1 2.673700552078635
96 2 -2.860157400133833
96 26 -5.918157903872238E-1
96 36 3.183728829663876E-1
96 37 7.001240527635876E-1
96 38 7.579357291154367E-1
96 74 -1.0502062750577029E1
96 75 -3.2933130515541253E-2
96 76 1.2329258779220886
96 77 2.307339166114804E-1
96 78 -2.540823842645264
96 79 2.7918481169049647E-1
96 80 -5.679499122849483E-1
96 81 2.935091744141359
96 85 -9.546475306326849E-1
96 86 -6.570173061581132E-1
96 87 1.3109817596542785
96 88 -2.2582971007579538
96 89 1.2457680120113412
96 90 -6.033564538464383
96 94 -1.949290885555249
96 95 -1.0999137734221138
96 96 2.760692794370252E1
96 97 -6.416886792109952E-2
96 98 1.2297054585521234
96 99 -9.595746076210528E-1
96 100 -5.338697925024291E-2
96 101 1.7825480464707533E-1
96 102 -1.6149250974531042
96 103 -2.654225727683823
96 104 -5.93723085851659E-2
96 105 -6.390153514673489E-1
96 109 1.6422076815897055
96 110 1.8205584160692778
96 111 4.341529580735161
96 202 -4.062609548216286E-1
96 203 3.0045120581347884E-1
96 229 -4.543785779661574
96 230 -7.761264794065061
97 36 -3.6803539155077862
97 37 1.6306206066676812
97 38 -5.864735824447934E-1
97 39 -9.019373587283908
97 40 -2.037055636815297
97 41 7.386157057202987E-1
97 68 -1.6863354381823816
97 74 4.085450399940127
97 79 -3.822232791345897
97 80 -5.75045238001274E-1
97 81 2.6303701378552744
97 82 -3.6500495591519004
97 83 9.170991938973059E-1
97 84 2.4909183141732156
97 88 2.006321384680597
97 89 -1.7948466190428762
97 90 -1.4675753523048956
97 91 -7.756124675050884
97 92 -1.4369503958786027
97 93 -2.476504629024068
97 94 -6.01232566340336E-1
97 95 7.843919762308008E-1
97 96 -6.416886792109952E-2
97 97 3.8292752611808E1
97 98 -9.47408621781415E-1
97 99 -4.280010872894168
97 108 9.838921677375478E-1
97 110 -7.254501596722283
97 111 8.318114342444536E-1
97 911 3.8314097272873857
97 912 1.629173680377159
97 913 -2.1629220097040007
97 917 -8.900448434422797
97 918 1.4799077542429577
97 919 2.62919059099744
97 931 -4.055671877371689
97 932 1.4944560378905264E-1
97 959 4.609505279421501
97 960 -1.4655903018784395
98 36 1.6306206066676814
98 37 -8.105253155156313E-1
98 38 -1.7317827391948762E-1
98 39 -2.0370556368152974
98 40 -3.9369500876655428
98 41 2.4402010579793076E-1
98 68 1.0922337447317572
98 74 -3.7058957399497015
98 79 -5.75045238001274E-1
98 80 -2.3803886505882605
98 81 1.1624968720853204
98 82 9.170991938973057E-1
98 83 -1.8570927460506907
98 84 -1.0271061027017252
98 88 -1.7948466190428771
98 89 1.540093801362392
98 90 -1.9929146640299984
98 91 -1.4369503958786027
98 92 -5.5309089349634615
98 93 5.186386192477164E-1
98 94 7.843919762308001E-1
98 95 -4.577170281320352
98 96 1.2297054585521234
98 97 -9.47408621781415E-1
98 98 3.322041330708212E1
98 99 2.8577177711760764
98 108 -8.949771754062573E-1
98 110 8.318114342444528E-1
98 111 -7.3944909351915795
98 911 1.6291736803771582
98 912 2.944201475840168
98 913 -7.834224383171515E-2
98 917 1.4799077542429593
98 918 -1.1738259125633709E1
98 919 -3.4281771625400417
98 931 9.838921677375504E-1
98 932 3.3008016153817437
98 959 -1.4655903018784397
98 960 1.4160546680508006
99 36 5.127189090394025E-1
99 37 -6.727120522181467E-1
99 38 1.620722971888785E-1
99 39 1.5639102924691306
99 40 8.238517413379179E-1
99 41 -3.9491971285756065
99 68 -6.007311929358811
99 74 -1.6327924412652845E1
99 79 1.657473901070848
99 80 5.925185704300475E-1
99 81 -4.423925269744267
99 82 1.5729945834790233
99 83 -5.016895351802214E-1
99 84 -2.99925535577536
99 88 -1.4675753523048958
99 89 -1.992914664029998
99 90 4.700022888468168
99 91 -2.4765046290240678
99 92 5.186386192477169E-1
99 93 -5.017083832601858
99 94 2.846027602426021E-2
99 95 1.2445725549063114E-1
99 96 -9.595746076210528E-1
99 97 -4.280010872894168
99 98 2.8577177711760764
99 99 3.804062055519883E1
99 108 1.092233744731756
99 110 4.085450399940125
99 111 -3.7058957399497015
99 911 -2.1629220097039994
99 912 -7.83422438317149E-2
99 913 6.207752323270371
99 917 2.5028943362976728
99 918 -2.358665082586109
99 919 -1.072182876089579E1
99 931 -1.686335438182382
99 932 1.2956332330993403
99 959 1.4944560378905195E-1
99 960 3.3008016153817437
100 75 -5.213631989539166
100 76 2.8948242620596004E-1
100 77 4.4191253010518694E-1
100 78 1.0995497524601254
100 85 -9.509098402490812
100 86 3.313707311466964
100 87 -2.0952356310077462
100 94 -1.6390772331609413
100 95 -8.464809677538496E-1
100 96 -5.338697925024291E-2
100 100 2.4193678765910445E1
100 101 -3.2035733453009403
100 102 -6.38896466678897E-1
100 109 -3.0252829677282724
100 137 8.312832490776264E-1
100 138 -2.4492140439823418
100 139 -1.969157030642774E-1
100 140 1.7820425036289869
100 147 2.2406022333572917E-2
100 148 -1.6568927962002382
100 149 -9.185540982126811E-1
100 155 1.2800988663342487
100 156 -9.839188196885689E-1
100 157 -1.831880549820106
100 200 -3.949361443882695
100 201 2.114207479239463
100 202 6.362171332482189E-1
100 203 -4.248240725231619E-1
100 229 3.817371779480387E-1
100 230 2.2499022923260936
101 75 6.362171332482176E-1
101 76 4.4191253010518694E-1
101 77 5.852790729890758E-1
101 78 -9.312829551380171E-1
101 85 3.313707311466962
101 86 -9.615037840955742
101 87 2.158147148150629
101 94 -8.464809677538474E-1
101 95 -4.68558167405279
101 96 1.7825480464707533E-1
101 100 -3.2035733453009403
101 101 2.6552507517672712E1
101 102 1.2755047352753912E-1
101 109 3.8173717794803846E-1
101 137 -2.0357095584320826
101 138 -1.9691570306427736E-1
101 139 -1.6181363098615242
101 140 8.594880640670899E-1
101 147 -1.656892796200238
101 148 5.998618228794549E-1
101 149 -1.0248349510566203E-1
101 155 -9.839188196885686E-1
101 156 2.056180955762699
101 157 -1.2816840313370261
101 200 2.11420747923946
101 201 -9.044189319345701
101 202 -1.0451920147436216
101 203 2.881715211606925E-1
101 229 -3.785692210344556
101 230 7.395480284597624E-1
102 75 5.665654049564839E-1
102 76 2.8673170354871175E-1
102 77 -3.613046534827442E-1
102 78 2.5477807193488875
102 85 -2.0952356310077453
102 86 2.1581471481506296
102 87 -8.462626412170593
102 94 3.0375587788641156E-1
102 95 1.0115881379743175
102 96 -1.6149250974531042
102 100 -6.38896466678897E-1
102 101 1.2755047352753912E-1
102 102 2.2154829666834033E1
102 109 2.249902292326093
102 137 -5.226371121468471
102 138 1.0082329798288059
102 139 4.428213974033738E-1
102 140 -3.115398158336971
102 147 -9.185540982126812E-1
102 148 -1.0248349510566143E-1
102 149 2.9089816029458406
102 155 -1.8318805498201074
102 156 -1.2816840313370261
102 157 -1.5175424712860328
102 200 1.0693784871729202
102 201 -2.8690428917593254
102 202 1.3485988616913525E-1
102 203 -9.088754586621578E-1
102 229 7.395480284597631E-1
102 230 -6.765853269751425
103 55 -5.1911737958815
103 56 -9.135027403848812E-1
103 57 1.9756444060426464
103 67 8.004519910596103E-2
103 74 2.6178285806859114E-1
103 85 -3.2154575132738725
103 86 2.1396558674840666E-1
103 87 -3.462413230721797E-1
103 88 -4.316938374271185
103 89 8.253325576864875E-1
103 90 8.020077098378842E-1
103 94 9.78485254012207E-1
103 95 -6.852974541477228E-1
103 96 -2.654225727683823
103 103 2.449207594116686E1
103 104 -2.2809291732406103
103 105 -3.168607119313811
103 106 -6.681315098978883E-1
103 107 5.574614448309027E-1
103 109 -9.829952332482549
103 110 -9.382769760289017E-1
103 111 -2.728371220183486
103 141 -6.563923634541486E-1
103 142 7.503345633860831E-1
103 143 8.543318599780144E-1
103 155 -6.542383298890113E-1
103 156 5.808978014706798E-1
103 157 5.6096240144551834E-2
103 229 3.6801086338341378
103 230 2.139165896892164
104 55 -4.5935128702314515E-1
104 56 -5.195544527234632
104 57 2.0863417449601958
104 67 -2.99308588054763E-2
104 74 9.137769007220189E-1
104 85 -1.405511636831363E-1
104 86 -5.139642577749942
104 87 2.8885717119779133
104 88 1.2461811043247333
104 89 -6.49459785906186
104 90 -3.285173079589401
104 94 -6.852974541477233E-1
104 95 4.014919941195259
104 96 -5.93723085851659E-2
104 103 -2.2809291732406103
104 104 2.9432232353903046E1
104 105 1.1100871275959773E-1
104 106 1.2866281114968559
104 107 -3.635138950414209
104 109 3.6801086338341378
104 110 -2.7283712201834858
104 111 -7.814103751670578E-1
104 141 3.75684647151672E-1
104 142 -9.136611712364812E-1
104 143 -1.6879339117333423
104 155 -2.9410219852930347E-1
104 156 -4.4893029261815585
104 157 3.053626956605926E-2
104 229 -6.797853908052561
104 230 -9.678251812723999E-1
105 55 1.2033278810250345
105 56 2.0863417449601958
105 57 -1.1341655915213328E1
105 67 7.344651343722871E-1
105 74 2.433421683964793
105 85 4.2958914870183224E-1
105 86 2.8885717119779137
105 87 -6.370241608080615
105 88 1.5743242348741613
105 89 -3.285173079589401
105 90 -7.1457381338195205
105 94 -2.6542257276838233
105 95 -5.937230858516659E-2
105 96 -6.390153514673489E-1
105 103 -3.168607119313811
105 104 1.1100871275959773E-1
105 105 3.2066256484696254E1
105 106 8.004519913824366E-2
105 107 -2.9930858805476468E-2
105 109 2.1391658968921634
105 110 2.61782858068591E-1
105 111 9.137769007220192E-1
105 141 7.850138817171981E-2
105 142 -1.6879339117333423
105 143 -3.485960726351812
105 155 5.609624012588735E-2
105 156 3.0536269566059038E-2
105 157 -1.2161375402121521E-1
105 229 -9.678251812723997E-1
105 230 -6.129917814079481
106 52 -2.3424622674891937
106 53 -6.689847814435247E-1
106 54 1.4731662666509964
106 55 -1.728304240819026
106 56 4.7821786173018416E-1
106 57 1.3249960600751587
106 67 5.152460592434912E-1
106 68 9.214721842696477E-2
106 74 -8.881784197001252E-16
106 88 -2.2259195279399964
106 89 7.262560191420043E-1
106 90 -1.6743857379709202
106 91 -2.6676447617946932
106 92 -8.198236557754244E-1
106 93 -1.811215065563934
106 103 -6.681315098978883E-1
106 104 1.2866281114968559
106 105 8.004519913824366E-2
106 106 1.7617206102308803E1
106 107 3.129062157866764E-1
106 108 -1.3151997709367707
106 110 -7.365454035470225
106 111 1.6653345369377348E-16
106 931 -6.192897588977871E-1
107 52 -2.8356811480123356E-1
107 53 -2.8355785686637844
107 54 2.3893274352938287
107 55 2.0122580820823177E-1
107 56 -1.5568467869237494
107 57 -1.7837421615140205
107 67 -2.0689839644944102E-1
107 68 -5.19369279234162E-2
107 88 4.1991473933018847E-1
107 89 -1.9705867568593736
107 90 1.9140158045456839
107 91 -4.76073655751761E-1
107 92 -2.6747196675443603
107 93 -2.230834895147158
107 103 5.574614448309027E-1
107 104 -3.635138950414209
107 105 -2.9930858805476468E-2
107 106 3.129062157866764E-1
107 107 1.856486069142248E1
107 108 -2.9458083468289162
107 110 3.3306690738754696E-16
107 111 -2.94618161418809
107 931 -7.318664376030024E-1
108 52 -2.041125669613111
108 53 -9.213937858311601
108 54 -2.998661844641725
108 67 -5.1936927923416976E-2
108 68 -1.7188065608195013
108 72 2.120432884848462E-1
108 73 -8.545126755476995E-2
108 74 -2.8218968929005994E-2
108 91 -1.6771986748873247
108 92 -8.972649468903866
108 93 3.195441163328251
108 97 9.838921677375478E-1
108 98 -8.949771754062573E-1
108 99 1.092233744731756
108 106 -1.3151997709367707
108 107 -2.9458083468289162
108 108 4.725797431011618E1
108 110 2.7461147801242065
108 111 -4.550150309576581
108 911 3.8731967296609007
108 912 -1.4812641159343482E1
108 913 -2.8655839866917643
108 917 -1.1029965332706482
108 918 5.0720173268624675
108 919 -1.5189940187743205
108 931 -1.9710527241045017
108 932 4.313513791372203E-1
108 936 3.4907702046751323
108 937 -1.0684068093821251E1
108 938 4.548627288137277
108 956 3.0708586340074526
108 959 -3.1984437978702798
108 960 -3.326617858794144
109 1 -4.0676956970010314E-1
109 2 -3.4423231574429245
109 3 1.3315590572165559
109 4 3.0056045025557685
109 24 -9.95021528376191
109 25 4.275024539557136E-1
109 26 -1.540353006485843
109 51 -4.657548003175193
109 55 1.7248270734793385
109 56 1.9519014037745006
109 57 -1.7286207904850037
109 69 -4.088799177090742
109 70 1.6200212247858758E-1
109 71 -9.298349896812366E-2
109 74 -4.2206675594521603E-1
109 75 -5.649010592937651
109 85 2.7028895476273906E-2
109 86 6.886755867500285E-3
109 87 2.1007519080123203
109 94 -2.4514087294436853
109 95 1.1569999642330508
109 96 1.6422076815897055
109 100 -3.0252829677282724
109 101 3.8173717794803846E-1
109 102 2.249902292326093
109 103 -9.829952332482549
109 104 3.6801086338341378
109 105 2.1391658968921634
109 109 7.153742110190575E1
109 110 -3.1764966198951208
109 111 4.6882837716406595E-1
109 125 -9.66101968372676E-1
109 126 -1.9768432496899806
109 127 -2.4943662117818475
109 128 -5.651818238172492
109 130 -3.4222444987860103
109 137 2.052281654874012
109 141 -2.2125835200938972
109 142 -4.005689837001784E-1
109 143 -2.60320719753898
109 155 -1.4806506049662271E1
109 156 -8.394886832555435E-1
109 157 1.2348254825915078E-1
109 158 1.4402277532247665
109 159 -3.594788371755306
109 160 1.1749533040857693E-1
109 161 3.032583521389344E-1
109 162 -2.514606293627348
109 167 -9.800453313871071E-1
109 177 -6.110911605958075
109 178 2.0109703448424914
109 179 -4.163666290260241
109 185 -6.1247469410070785
109 186 1.5118513164141532
109 187 4.158187077029995
109 200 -8.690213487853032E-1
109 201 -1.3386272568496862
109 202 -8.17706894113633E-17
109 203 5.861269550390231E-16
109 204 3.9228965326720894E-17
109 205 -7.531425579989922E-16
109 217 4.385777008063785E-2
109 218 4.4824044692965337E-1
109 219 -5.751949129829343E-1
109 220 -2.3055387576800543E-1
109 221 2.1550829694822077E-1
109 222 2.445911156715104E-1
109 223 6.936058568069292E-2
109 224 -1.347622241209565
109 225 2.3517346106015619E-1
109 226 2.798141082581788
109 227 3.4082539678170343
109 228 1.7749294805267254E-1
109 229 9.693379671180363E-1
109 230 -6.368037616552188E-1
110 1 2.498449318653362
110 2 -2.2198322537817714
110 15 -7.892562679179299E-1
110 16 3.278721510156083
110 17 -5.80877651917187
110 18 3.2196019535263964
110 22 1.0824756144398628
110 23 -7.15534202860632E-1
110 24 -2.1483458347800035E1
110 25 4.0405851167397415
110 26 1.9277178971827031
110 36 -7.795493294952394
110 37 -1.7056769659800303E-1
110 38 -5.297763455600242
110 39 -1.7159265137901465
110 40 -1.6900572231704867
110 41 -1.7853032256380201
110 46 4.125297491475909E-1
110 47 -1.8670005510518675
110 48 -3.1862366716077766
110 51 5.810526307572622
110 52 -8.795940674622342E-1
110 53 1.2979050108624755
110 54 -1.8525186603726655
110 55 -4.432152955539173
110 56 -1.7085189532828453
110 57 -3.310551960509375
110 67 -1.7763568394002505E-15
110 68 1.2906454565668957E-1
110 69 -2.0075469522991964
110 70 4.398945385592138E-1
110 71 4.682129977868039E-1
110 72 -7.525719936659549
110 73 -4.710183230458547
110 74 -2.0096972203787606
110 88 -1.579941283465165
110 89 -9.381254774919829E-1
110 90 3.001913035523661
110 91 -6.2165573853560085E-2
110 92 1.1281624340672052
110 93 1.9443256345325723
110 94 -3.9547729263022857
110 95 -9.696227151284944E-1
110 96 1.8205584160692778
110 97 -7.254501596722283
110 98 8.318114342444528E-1
110 99 4.085450399940125
110 103 -9.382769760289017E-1
110 104 -2.7283712201834858
110 105 2.61782858068591E-1
110 106 -7.365454035470225
110 107 3.3306690738754696E-16
110 108 2.7461147801242065
110 109 -3.1764966198951208
110 110 7.424876740857923E1
110 111 -4.804346850296533
110 229 4.6882837716406817E-1
110 230 -4.2206675594521803E-1
110 931 -5.5605285523310695
110 932 7.323449754528924E-2
110 956 1.263053742984904
110 959 4.500370077988678
110 960 1.7363030869020337
111 1 1.9277178971827025
111 2 2.193989751006246
111 15 4.125297491475917E-1
111 16 -8.394491556907719E-1
111 17 -1.8670005510518668
111 18 2.6694514255086825
111 22 -3.1862366716077775
111 23 5.227043997392911E-1
111 24 5.810526307572623
111 25 -2.530800717473698
111 26 1.9100310209997062
111 36 -1.7056769659800247E-1
111 37 -6.289841263310599
111 38 8.744596659822745E-1
111 39 -1.690057223170486
111 40 -4.640488476629198
111 41 -3.564785638628952
111 46 5.137475391709456E-1
111 47 -7.2054846005297755
111 48 6.168266249788665
111 51 -1.4462304079083763E1
111 52 1.2979050108624746
111 53 1.5811078629085058
111 54 3.7984549445641547E-1
111 55 -1.7085189532828453
111 56 -1.8571439488874824
111 57 -1.4730054969744633
111 68 -2.821896892900605E-2
111 69 4.3989453855921323E-1
111 70 -4.953680826588302
111 71 -4.5964769429265555
111 72 1.2630537429849047
111 73 3.891058125434072
111 74 2.485544092279826
111 88 -9.381254774919832E-1
111 89 1.1907038895609512
111 90 5.442818759158903E-1
111 91 1.128162434067205
111 92 1.8817384087235147
111 93 -4.071877559378115E-1
111 94 -9.696227151284944E-1
111 95 -5.063317902268153
111 96 4.341529580735161
111 97 8.318114342444536E-1
111 98 -7.3944909351915795
111 99 -3.7058957399497015
111 103 -2.728371220183486
111 104 -7.814103751670578E-1
111 105 9.137769007220192E-1
111 106 1.6653345369377348E-16
111 107 -2.94618161418809
111 108 -4.550150309576581
111 109 4.6882837716406595E-1
111 110 -4.804346850296533
111 111 7.143939416501541E1
111 229 -1.3617612023074539E1
111 230 -1.676429798871811
111 931 2.746114780124209
111 932 5.608903602891131E-3
111 956 -7.5720031198019875
111 959 1.7363030869020335
111 960 -3.3508796618706063
112 112 5.718217039589402
112 113 1.394385893329135
112 114 1.9787548998519808
112 115 -1.0781014104743547
112 116 -6.745605267292103E-1
112 117 -1.4391645715055995E-1
112 118 -1.042063491906065
112 119 3.3333333330614605E-2
112 120 -1.4880952378908935E-1
112 121 -3.042267409220153E-1
112 122 8.743055554385744E-1
112 123 6.250000000474404E-3
112 124 3.6458333332642895E-1
112 125 -2.6466481245757173E-1
112 126 -8.963826749314407E-1
112 127 -1.5492585714179163E-1
112 129 -3.4934104127226345E-1
112 131 -4.589316791733939
112 132 -4.898552053311869E-1
112 133 -1.834238300006195
112 150 7.309649528162178E-1
112 151 3.239871841598615E-1
112 206 3.028419961717524E-1
112 207 2.4277864583124156E-1
113 112 1.394385893329135
113 113 5.6740226095494535
113 114 2.047636886737611
113 115 -1.5372719339610091E-1
113 116 -2.6209162701552957
113 117 -1.8398149416628098
113 118 1.1666666666459315E-1
113 119 -1.2920634919080005
113 120 -7.352143588268402E-14
113 121 -4.9346247873829546E-1
113 122 6.875000000095918E-2
113 123 6.8680555543712E-1
113 124 6.770833333483182E-1
113 125 -8.96382674931441E-1
113 126 -2.545836011658507E-1
113 127 1.4203058186481932E-1
113 129 2.7531090559413857E-2
113 131 -1.0731885386647813
113 132 -2.8066671969671004
113 133 -9.187378904774075E-1
113 150 5.15964756438222E-1
113 151 1.368107196449208E-1
113 206 4.765916755647527E-1
113 207 3.852645089278375E-1
114 112 1.9787548998519808
114 113 2.047636886737611
114 114 7.205582246310376
114 115 3.769168761868138E-1
114 116 -1.8398149416628091
114 117 -2.373408262548433
114 118 -7.440476189450683E-2
114 119 -7.460081940857657E-14
114 120 -2.580158729778364
114 121 -8.33515954463836E-1
114 122 2.604166666527712E-1
114 123 2.604166666846024E-1
114 124 2.120138888597843
114 125 -7.501639523737389E-1
114 126 -4.5320751337093407E-1
114 127 1.4973258955204631
114 129 -1.7388802083247448E-1
114 131 -1.8342383000061955
114 132 -3.234997952416543E-1
114 133 -5.9383668216487875
114 150 2.166065924153504E-1
114 151 -1.7944090135875548E-1
114 206 4.8790959821201363E-1
114 207 9.024027380107384E-1
115 112 -1.0781014104743547
115 113 -1.5372719339610091E-1
115 114 3.769168761868138E-1
115 115 8.312054370598729E1
115 116 -4.9830698832331555E-1
115 117 2.061349195077185E1
115 118 -6.458763596250911E1
115 119 1.267998548616196
115 120 -1.7046520484682432E1
115 121 5.753305062871864E-1
115 125 -1.2535440224855652E1
115 126 -3.150240940181281E-1
115 127 -4.3704200182803277E-1
115 130 -1.020274219876887
115 131 1.6915148759504534E-1
115 132 2.4048283981272887
115 133 -5.056530013698364E-1
115 141 6.324485032793958E-1
115 142 -1.6604181707780769E-1
115 143 1.4236352098755536E-1
115 144 -4.4562623514281097E-1
115 145 3.510598448372222E-1
115 146 -6.330896964737875E-2
115 150 1.9742151527105767
115 151 1.376169269236447E-1
115 155 -3.4181122950807437
115 156 -1.6026260608838023
115 157 -2.164699074805166
115 158 -2.811168501632747
115 159 2.874598814144519E-1
115 160 -2.426946881444271
115 161 -1.7132374462196482
115 162 9.360675595437111E-1
116 112 -6.745605267292103E-1
116 113 -2.6209162701552957
116 114 -1.8398149416628091
116 115 -4.9830698832331555E-1
116 116 7.442154154114883E1
116 117 -5.042740838063891
116 118 1.3929985486171652
116 119 -6.150714473545902E1
116 120 6.555042001905852
116 121 8.666027131640417E-1
116 125 -3.1502409401812825E-1
116 126 -5.6088726829791
116 127 -9.486852935926674E-1
116 130 -1.7132374462196476
116 131 2.40482839812729
116 132 9.047362703907827E-1
116 133 1.1381710287793996
116 141 3.336080991582544E-1
116 142 -9.702592825150499E-1
116 143 -5.804978745990036E-1
116 144 4.5522651150469395E-1
116 145 -6.065132381812519E-1
116 146 1.0925070003175
116 150 -5.748130563240701E-1
116 151 2.3583373010183759E-1
116 155 -1.0568627443040455
116 156 -2.275378851014991
116 157 -1.2506317893825134
116 158 2.4614329851101524E-1
116 159 -1.523536069439095
116 160 -9.39566783182633E-2
116 161 -4.4949041189762945E-1
116 162 1.0400467145235678E-1
117 112 -1.4391645715055995E-1
117 113 -1.8398149416628098
117 114 -2.373408262548433
117 115 2.061349195077185E1
117 116 -5.042740838063891
117 117 1.6107004471606453E2
117 118 -1.808818715135718E1
117 119 6.5550420019058535
117 120 -1.467588665739613E2
117 121 9.062597757053024E-1
117 125 -4.3704200182803E-1
117 126 -9.48685293592667E-1
117 127 -7.302953051388638
117 130 9.360675595437112E-1
117 131 -5.056530013698362E-1
117 132 1.1381710287793996
117 133 2.2791490915778816
117 141 3.973606594522183E-1
117 142 -5.80497874599003E-1
117 143 2.700112477036842E-1
117 144 -5.84142302984734E-1
117 145 1.0925070003175001
117 146 -3.006112780914432E-1
117 150 9.409977452622827E-1
117 151 8.666027131640414E-1
117 155 -1.4886996471055327
117 156 -1.2506317893825134
117 157 -4.013078782418772
117 158 -1.64027735323419
117 159 -9.395667831826393E-2
117 160 -4.0802000332287225
117 161 1.0400467145235605E-1
117 162 3.0365315058590747E-1
118 112 -1.042063491906065
118 113 1.1666666666459315E-1
118 114 -7.440476189450683E-2
118 115 -6.458763596250911E1
118 116 1.3929985486171652
118 117 -1.808818715135718E1
118 118 8.436291323411467E1
118 119 -1.7175417302836453
118 120 2.0452495844045806E1
118 122 -1.8527928379511412E1
118 123 3.1016988363843795E-1
118 124 -2.5847490303203173
118 125 -1.6459369500076217
118 126 2.247441221734434E-1
118 127 8.306403064115489E-14
118 130 5.636841918715192E-1
118 144 8.76967357948028E-1
118 145 -6.989483393627222E-2
118 146 2.948450995262115E-1
118 161 -2.57142656873722E-1
118 162 -9.72495393061127E-14
119 112 3.3333333330614605E-2
119 113 -1.2920634919080005
119 114 -7.460081940857657E-14
119 115 1.267998548616196
119 116 -6.150714473545902E1
119 117 6.5550420019058535
119 118 -1.7175417302836453
119 119 8.092526283270912E1
119 120 -8.193802502451396
119 122 4.3516988363940734E-1
119 123 -1.830524227452119E1
119 124 1.9118872505904152
119 125 2.247441221734437E-1
119 126 -1.1436569648554924
119 127 8.791245393386076E-15
119 130 -2.57142656873722E-1
119 144 1.3438499397706118E-2
119 145 5.421317406174438E-1
119 146 -2.731267500447977E-1
119 161 7.80712893417152E-1
119 162 -1.0079038919126552E-14
120 112 -1.4880952378908935E-1
120 113 -7.352143588268402E-14
120 114 -2.580158729778364
120 115 -1.7046520484682432E1
120 116 6.555042001905852
120 117 -1.467588665739613E2
120 118 2.0452495844045806E1
120 119 -8.193802502451396
120 120 1.9235926810644347E2
120 122 -3.626415696995063
120 123 1.9118872505904152
120 124 -4.4508000465993945E1
120 125 8.191637784131751E-14
120 126 8.225892131649828E-15
120 127 -2.469231424898474
120 130 -9.814765544524224E-14
120 144 3.6924986142079597E-1
120 145 -2.731267500447981E-1
120 146 1.6596103294175122
120 161 -9.452655982448272E-15
120 162 2.297378758771115
121 112 -3.042267409220153E-1
121 113 -4.9346247873829546E-1
121 114 -8.33515954463836E-1
121 115 5.753305062871864E-1
121 116 8.666027131640417E-1
121 117 9.062597757053024E-1
121 121 1.3189616886420845E1
121 131 9.609915569082045E-1
121 132 1.1458811652596994
121 133 -5.617479300960713
121 134 4.570840487197193E-1
121 135 -1.7503873534830683E-1
121 136 -1.1924957069051378
121 150 -1.7406050576198834E-1
121 151 5.513737944292955E-1
121 158 -8.194644568107899E-1
121 159 -1.2343342024336226
121 160 -6.723114003905431
121 211 -1.1280935850589155
121 212 -5.499698758527249E-1
121 213 -3.6214587082762195E-1
121 223 4.324391766385993E-1
121 224 -1.1105238048008714E-1
121 225 6.32874174936591E-1
122 112 8.743055554385744E-1
122 113 6.875000000095918E-2
122 114 2.604166666527712E-1
122 118 -1.8527928379511412E1
122 119 4.3516988363940734E-1
122 120 -3.626415696995063
122 122 2.0167595555190807E1
122 123 -1.9669971181566143E-1
122 124 5.1007849491128265
122 125 3.5391598032324717E-1
122 126 1.7206961802829868E-1
122 127 -6.84313762107452E-1
122 130 -2.4480738629230543
122 144 -1.1725184952957293
122 145 -2.1758494181970378E-1
122 146 -5.677445324302615E-1
122 152 7.527036467775667E-1
122 153 -6.483011636447047E-2
122 154 5.254565800915811E-1
122 161 -1.9687473166882946E-1
122 162 -1.0081842043244034
123 112 6.250000000474404E-3
123 113 6.8680555543712E-1
123 114 2.604166666846024E-1
123 118 3.1016988363843795E-1
123 119 -1.830524227452119E1
123 120 1.9118872505904152
123 122 -1.9669971181566143E-1
123 123 1.9450313468184365E1
123 124 -1.6157928653416787
123 125 1.7206961802829865E-1
123 126 6.99411529050759E-1
123 127 3.8692891115344874E-1
123 130 -1.9687473166882946E-1
123 144 -1.55084941819219E-1
123 145 -1.2838615477908382
123 146 -9.559436252952085E-1
123 152 6.0169883636499014E-2
123 153 3.7006547211386603E-1
123 154 4.5521125016691555E-1
123 161 -1.61749220247408
123 162 -4.427075879584943E-1
124 112 3.6458333332642895E-1
124 113 6.770833333483182E-1
124 114 2.120138888597843
124 118 -2.5847490303203173
124 119 1.9118872505904152
124 120 -4.4508000465993945E1
124 122 5.1007849491128265
124 123 -1.6157928653416787
124 124 4.575684569173351E1
124 125 -1.5734723075522903
124 126 7.510979112593238E-1
124 127 2.007991907582134
124 130 -1.7819937281245848
124 144 1.0189832469626192E-1
124 145 -9.559436252952083E-1
124 146 -3.8372064796316163
124 152 3.729484588616727E-1
124 153 9.104225006104055E-2
124 154 1.5749446209397868
124 161 -8.593742546222103E-1
124 162 -3.114714163227723
125 109 -9.66101968372676E-1
125 112 -2.6466481245757173E-1
125 113 -8.96382674931441E-1
125 114 -7.501639523737389E-1
125 115 -1.2535440224855652E1
125 116 -3.1502409401812825E-1
125 117 -4.3704200182803E-1
125 118 -1.6459369500076217
125 119 2.247441221734437E-1
125 120 8.191637784131751E-14
125 122 3.5391598032324717E-1
125 123 1.7206961802829865E-1
125 124 -1.5734723075522903
125 125 3.6673051517008886E1
125 126 -5.232877929017106E-1
125 127 2.6289566513135103
125 128 -7.190425060962753E-1
125 129 -1.722219024653366
125 130 -4.3226220504011765
125 131 -5.20301910394016
125 132 -3.3127768086983562
125 133 3.8414190176081675E-1
125 155 1.0420846363550549
125 156 1.8738117317653846
125 157 2.0040219114991498
125 158 6.900242494246194E-1
125 159 -4.313262597544706E-1
125 160 2.4467931244897296
125 161 2.4155938640944843
125 162 -1.103233553946271
125 204 -1.79719183224229
125 205 1.5977434372738548
125 206 1.4258660099280829
125 207 7.082683106484328E-1
125 220 -1.0190685239280821E1
125 221 7.959137336346815E-1
125 222 -3.048747663639679E-1
125 223 -1.1893445030464866
125 224 2.3448336326119996
125 225 -3.106772543139428
125 229 -1.9768432496899804
125 230 -2.4943662117818475
126 109 -1.9768432496899806
126 112 -8.963826749314407E-1
126 113 -2.545836011658507E-1
126 114 -4.5320751337093407E-1
126 115 -3.150240940181281E-1
126 116 -5.6088726829791
126 117 -9.48685293592667E-1
126 118 2.247441221734434E-1
126 119 -1.1436569648554924
126 120 8.225892131649828E-15
126 122 1.7206961802829868E-1
126 123 6.99411529050759E-1
126 124 7.510979112593238E-1
126 125 -5.232877929017106E-1
126 126 3.2847032460697896E1
126 127 -1.4784289109394873
126 128 -1.7971918322422895
126 129 1.4258660099280827
126 130 2.4155938640944834
126 131 -3.3127768086983593
126 132 -8.374822840066429
126 133 9.233098395777621E-1
126 155 1.8738117317653853
126 156 8.385662905164061E-1
126 157 -1.6457392446153662
126 158 -4.3132625975447E-1
126 159 1.3236916528136646
126 160 1.5697668304350747
126 161 -9.57810284283161
126 162 2.8625916994775227
126 204 -7.190425061094978E-1
126 205 5.571208762959443E-1
126 206 -4.724176960905401
126 207 -1.958949220864528
126 220 7.959137336346815E-1
126 221 -3.090294911791677
126 222 -1.6083849155279384E-2
126 223 2.3448336326119996
126 224 -8.09948354922886E-1
126 225 2.6022400764127855
126 229 -1.4052002674507789
126 230 -2.7650332009201604
127 109 -2.4943662117818475
127 112 -1.5492585714179163E-1
127 113 1.4203058186481932E-1
127 114 1.4973258955204631
127 115 -4.3704200182803277E-1
127 116 -9.486852935926674E-1
127 117 -7.302953051388638
127 118 8.306403064115489E-14
127 119 8.791245393386076E-15
127 120 -2.469231424898474
127 122 -6.84313762107452E-1
127 123 3.8692891115344874E-1
127 124 2.007991907582134
127 125 2.6289566513135103
127 126 -1.4784289109394873
127 127 2.9720727710758492E1
127 128 1.0727538919352242
127 129 3.4409931054222487E-1
127 130 -8.651383158509747E-1
127 131 3.841419017608161E-1
127 132 9.233098395777615E-1
127 133 -5.2841745359571775
127 155 2.0040219114991498
127 156 -1.6457392446153656
127 157 2.7090672518847456
127 158 2.4467931244897314
127 159 1.5697668304350745
127 160 -2.9936581723071383
127 161 2.0292583661502794
127 162 -5.414947644622596
127 204 3.213133095416654E-2
127 205 3.898839457382404E-2
127 206 -1.069790675416875
127 207 -2.016503196338303
127 220 -1.1382080996912105
127 221 2.2201138893621047E-1
127 222 -3.4108293843691135
127 223 -3.1067725431394275
127 224 2.602240076412785
127 225 -3.776022748817993
127 229 -2.7650332009201604
127 230 -3.3057810016202254
128 3 -2.9665396506705646
128 4 -4.8950557729908534E-1
128 69 3.750075567326899E-2
128 70 1.3375304395748842
128 71 3.60999916476952E-2
128 109 -5.651818238172492
128 125 -7.190425060962753E-1
128 126 -1.7971918322422895
128 127 1.0727538919352242
128 128 2.1764436907377178E1
128 130 -5.229443729222543
128 161 6.401582285914862E-1
128 162 -5.6884357387295E-1
128 167 -2.1709331843960897
128 185 -4.41021553155354
128 186 1.33753043956422
128 187 -2.1565613592018185
128 204 1.2747680306728834E-2
128 205 2.310259211214702
128 220 -2.824878007335028
128 221 6.401582286010594E-1
128 222 -2.0420258442376707E-1
128 229 2.6272755139380662E-17
128 230 -8.761716400808165E-16
129 112 -3.4934104127226345E-1
129 113 2.7531090559413857E-2
129 114 -1.7388802083247448E-1
129 125 -1.722219024653366
129 126 1.4258660099280827
129 127 3.4409931054222487E-1
129 129 8.2866528954255
129 131 -2.338831347110987
129 132 1.0675368847713351E-1
129 133 1.3715347127071507
129 206 -1.2128825894959809E-1
129 207 -1.7521397342229345E-1
129 208 -1.0790007522530054
129 209 2.4930081463346732E-1
129 210 -2.4374741599723893E-1
129 220 -1.5216449076935297
129 221 -1.6314151871591471
129 222 -3.9370378226344754E-1
129 223 -1.275615822442349
129 224 -5.67481574893518E-2
129 225 -7.290808307339208E-1
130 69 -1.7772914916208944
130 70 -8.32229137470571E-1
130 71 9.467998678476733E-2
130 109 -3.4222444987860103
130 115 -1.020274219876887
130 116 -1.7132374462196476
130 117 9.360675595437112E-1
130 118 5.636841918715192E-1
130 119 -2.57142656873722E-1
130 120 -9.814765544524224E-14
130 122 -2.4480738629230543
130 123 -1.9687473166882946E-1
130 124 -1.7819937281245848
130 125 -4.3226220504011765
130 126 2.4155938640944834
130 127 -8.651383158509747E-1
130 128 -5.229443729222543
130 130 2.554404008371104E1
130 141 -6.715302259601393
130 142 2.9071285246785026
130 143 2.0809706777583727
130 144 -3.6347612647788865
130 145 6.720933038335076E-1
130 146 2.82287152535372E-13
130 152 2.8802844073086376E-1
130 153 4.425453526539719E-1
130 154 -1.102840987146642
130 155 2.1742606608974167
130 156 -9.391213956638783E-1
130 157 1.6685575500992516
130 161 -3.4421722580942395
130 162 1.0597353495625434
130 204 6.401582285914871E-1
130 205 4.245682010007177E-1
130 229 3.032583521389341E-1
130 230 -2.514606293627348
131 112 -4.589316791733939
131 113 -1.0731885386647813
131 114 -1.8342383000061955
131 115 1.6915148759504534E-1
131 116 2.40482839812729
131 117 -5.056530013698362E-1
131 121 9.609915569082045E-1
131 125 -5.20301910394016
131 126 -3.3127768086983593
131 127 3.841419017608161E-1
131 129 -2.338831347110987
131 131 2.4857476785206277E1
131 132 3.6313360746218235
131 133 1.5591807505828705
131 150 -8.364026338695654
131 151 -1.3750929476686267
131 158 1.8931842079188523
131 159 3.4952236885766574E-1
131 160 2.825022355639328E-1
131 206 6.246639775928962E-1
131 207 1.371534712707151
131 223 -6.424618899239425
131 224 -1.249292524167906
131 225 -2.2184598561469433
132 112 -4.898552053311869E-1
132 113 -2.8066671969671004
132 114 -3.234997952416543E-1
132 115 2.4048283981272887
132 116 9.047362703907827E-1
132 117 1.1381710287793996
132 121 1.1458811652596994
132 125 -3.3127768086983562
132 126 -8.374822840066429
132 127 9.233098395777615E-1
132 129 1.0675368847713351E-1
132 131 3.6313360746218235
132 132 2.1782200141268035E1
132 133 7.216980770891541E-1
132 150 -8.571826585528651E-1
132 151 -5.11478342656326
132 158 3.4952236885766524E-1
132 159 -1.232215717213193
132 160 -2.673222372126265
132 206 -8.897912598934984E-1
132 207 -7.304762311602897E-2
132 223 -1.8326258575014982
132 224 -4.268655970955334
132 225 -8.592903202220662E-1
133 112 -1.834238300006195
133 113 -9.187378904774075E-1
133 114 -5.9383668216487875
133 115 -5.056530013698364E-1
133 116 1.1381710287793996
133 117 2.2791490915778816
133 121 -5.617479300960713
133 125 3.8414190176081675E-1
133 126 9.233098395777621E-1
133 127 -5.2841745359571775
133 129 1.3715347127071507
133 131 1.5591807505828705
133 132 7.216980770891541E-1
133 133 2.3902711725068787E1
133 150 9.609915569082049E-1
133 151 1.8067293795421056
133 158 2.825022355639324E-1
133 159 -2.6732223721262667
133 160 -1.0196890510076637
133 206 -7.338958373984339E-1
133 207 -2.9789741483346512
133 223 -2.2184598561469437
133 224 -2.6405222498631303E-1
133 225 -5.343176958737672
134 121 4.570840487197193E-1
134 134 5.666335236944771
134 135 1.243735880085083
134 136 -1.963941934872309
134 137 -2.6479952769856313E-1
134 138 8.743055555474546E-1
134 139 6.250000000362285E-3
134 140 -3.6458333332736304E-1
134 147 -9.279552825706914E-1
134 148 1.3222829873659997E-1
134 149 4.692192389404229E-2
134 150 1.7340472329674908E-2
134 151 7.136291876075614E-1
134 158 -9.555373291639531E-1
134 159 -1.0217566764075765
134 160 8.283720582803202E-1
134 194 -5.089285714276835E-2
134 195 1.6041666666513457E-1
134 196 -6.770833333289686E-1
134 200 -1.1254829607376988
134 201 -1.5058501167615232
134 211 -3.498112835206785
134 212 2.713467600743582E-1
134 213 1.9380300983331211
135 121 -1.7503873534830683E-1
135 134 1.243735880085083
135 135 5.235047400927252
135 136 -1.4047803760473292
135 137 8.402357200479804E-2
135 138 6.874999999972606E-2
135 139 6.868055555493632E-1
135 140 -6.770833333286987E-1
135 147 5.864649821555522E-1
135 148 -2.2906653328275484
135 149 4.122197886196599E-1
135 150 4.052258375214263E-1
135 151 2.165207375635302E-1
135 158 -5.009233430738671E-1
135 159 -1.757168686831105
135 160 1.775794608370211
135 194 1.4583333332317663E-2
135 195 3.866071428556823E-1
135 196 -3.6458333333401E-1
135 200 -1.5058501167615237
135 201 -1.263225474508289
135 211 -3.119865732587144E-1
135 212 -1.2139213427288837
135 213 3.494478090636756E-1
136 121 -1.1924957069051378
136 134 -1.963941934872309
136 135 -1.4047803760473292
136 136 5.918931220128062
136 137 4.0561230725267816E-1
136 138 -2.604166666630477E-1
136 139 -2.604166666649832E-1
136 140 2.1201388888712214
136 147 -1.8264893236280982E-1
136 148 4.1221978861966097E-1
136 149 -2.406215887240456
136 150 9.141680974462255E-2
136 151 -6.958720686797961E-1
136 158 3.075387249522887E-1
136 159 1.7757946083702105
136 160 -2.6226170090750633
136 194 -2.6041666666525254E-1
136 195 -2.604166666662367E-1
136 196 8.133928571354102E-1
136 200 3.3043856753338496E-1
136 201 6.792616672405514E-1
136 211 1.9380300983331216
136 212 -2.4579028617207754E-1
136 213 -3.0367466701667123
137 75 -1.0729027080693456
137 100 8.312832490776264E-1
137 101 -2.0357095584320826
137 102 -5.226371121468471
137 109 2.052281654874012
137 134 -2.6479952769856313E-1
137 135 8.402357200479804E-2
137 136 4.0561230725267816E-1
137 137 2.9707975857314032E1
137 138 6.839641963474548E-1
137 139 -3.868441606965654E-1
137 140 2.0072936693408705
137 147 8.024392932706281E-1
137 148 8.95285139378365E-2
137 149 -5.90033558945502
137 155 -2.04639009122158
137 156 2.22876987446525
137 157 4.304810366628987
137 158 -3.2128593140016815
137 159 -2.1432944182981517
137 160 -9.426578193400939
137 194 -3.869289111564961E-1
137 195 6.843137620833104E-1
137 196 4.703979311232901E-1
137 200 -1.1373190012601528
137 201 2.5464901417151724
137 202 -3.2648470811918906E-2
137 203 3.8945396756019116E-2
137 211 7.409465796685587E-1
137 212 -9.206998869217409E-1
137 213 -6.453853145922091
137 217 1.139929872861328
137 218 -2.0651500798569908E-1
137 219 -4.467677034047547
137 223 1.8703547073082114
137 224 -2.4388404827833208
137 225 -1.4946994189985336
137 229 2.531426121723113
137 230 -3.9655210251232775
138 76 7.525794144165404E-1
138 77 -6.50849258349544E-2
138 78 -5.259621544303964E-1
138 85 -1.1722915673780556
138 86 -2.1745753707997795E-1
138 87 5.688062385946451E-1
138 100 -2.4492140439823418
138 101 -1.9691570306427736E-1
138 102 1.0082329798288059
138 134 8.743055555474546E-1
138 135 6.874999999972606E-2
138 136 -2.604166666630477E-1
138 137 6.839641963474548E-1
138 138 2.0159424266956798E1
138 139 -1.9623041546028086E-1
138 140 -5.0989168783437595
138 147 -1.8518697219630067E1
138 148 4.3491507415995523E-1
138 149 3.6242922846662973
138 200 3.538935940696786E-1
138 201 1.7202350727980895E-1
139 76 5.991507416377306E-2
139 77 3.6998294370861484E-1
139 78 -4.549945754118376E-1
139 85 -1.5495753708061416E-1
139 86 -1.2833829166268347
139 87 9.554886083644119E-1
139 100 -1.969157030642774E-1
139 101 -1.6181363098615242
139 102 4.428213974033738E-1
139 134 6.250000000362285E-3
139 135 6.868055555493632E-1
139 136 -2.604166666649832E-1
139 137 -3.868441606965654E-1
139 138 -1.9623041546028086E-1
139 139 1.944194393556315E1
139 140 1.6149226137344228
139 147 3.0991507416122765E-1
139 148 -1.829651452113251E1
139 149 -1.9109772167288224
139 200 1.7202350727980886E-1
139 201 6.993013127997473E-1
140 76 -3.730495737403673E-1
140 77 -9.099891508259136E-2
140 78 1.5742885855971749
140 85 -1.0083661854122106E-1
140 86 9.55488608364412E-1
140 87 -3.835512489332647
140 100 1.7820425036289869
140 101 8.594880640670899E-1
140 102 -3.115398158336971
140 134 -3.6458333332736304E-1
140 135 -6.770833333286987E-1
140 136 2.1201388888712214
140 137 2.0072936693408705
140 138 -5.0989168783437595
140 139 1.6149226137344228
140 140 4.573636541116051E1
140 147 2.582625618010234
140 148 -1.9109772167288224
140 149 -4.448717590730016E1
140 200 1.572718282313488
140 201 -7.508398210258121E-1
141 55 -1.9716502581908872
141 56 -1.0275756696964087
141 57 -4.7407023708556034E-1
141 61 -5.644903008502611E-1
141 62 5.594658908850387E-1
141 63 -6.356865790363764E-2
141 69 -3.7606094770833015E-2
141 70 -1.418090374273275
141 71 1.5091930481885405
141 103 -6.563923634541486E-1
141 104 3.75684647151672E-1
141 105 7.850138817171981E-2
141 109 -2.2125835200938972
141 115 6.324485032793958E-1
141 116 3.336080991582544E-1
141 117 3.973606594522183E-1
141 130 -6.715302259601393
141 141 5.8350229878415675E1
141 142 -4.019678225022978
141 143 1.6459426965348445E1
141 144 -4.355355491999173E1
141 145 1.764776568209694
141 146 -1.6305274354829983E1
141 155 -3.2710986647419107
141 156 9.252495226096784E-1
141 157 -1.079332291561137
141 161 2.9071285246785017
141 162 2.080970677758373
141 229 -4.0056898370017757E-1
141 230 -2.60320719753898
142 55 -6.047502828409876E-1
142 56 -5.218860563530206
142 57 -2.118374330408758
142 61 6.844658908866896E-1
142 62 -8.971098409720993E-1
142 63 1.7125350016148388
142 69 -1.4180903742732753
142 70 6.098043988102648E-1
142 71 1.4620420835888028
142 103 7.503345633860831E-1
142 104 -9.136611712364812E-1
142 105 -1.6879339117333423
142 109 -4.005689837001784E-1
142 115 -1.6604181707780769E-1
142 116 -9.702592825150499E-1
142 117 -5.80497874599003E-1
142 130 2.9071285246785026
142 141 -4.019678225022978
142 142 5.7991581375074844E1
142 143 -4.255317463980448
142 144 1.86894323487769
142 145 -3.861189904357505E1
142 146 5.521393506654888
142 155 3.982574690862613E-1
142 156 -5.757446094764547
142 157 2.1745494805955308
142 161 -7.7216512416777485
142 162 -2.1388747111445476
142 229 1.4895014643860671
142 230 -8.952178058796169E-2
143 55 -1.9005272059084988E-1
143 56 -2.1183743304087574
143 57 -2.1205852444707993
143 61 -5.844019912452684E-1
143 62 1.7125350016148384
143 63 -4.17600040517151E-1
143 69 1.50919304818854
143 70 1.4620420835888026
143 71 1.1238742888853268
143 103 8.543318599780144E-1
143 104 -1.6879339117333423
143 105 -3.485960726351812
143 109 -2.60320719753898
143 115 1.4236352098755536E-1
143 116 -5.804978745990036E-1
143 117 2.700112477036842E-1
143 130 2.0809706777583727
143 141 1.6459426965348445E1
143 142 -4.255317463980448
143 143 1.0375048885978077E2
143 144 -1.7346941021509068E1
143 145 5.521393506654887
143 146 -8.90357725569423E1
143 155 -3.2168314137675996E-1
143 156 2.174549480595531
143 157 -4.713554473275723
143 161 -2.138874711144547
143 162 -4.506292257467327
143 229 -8.952178058796179E-2
143 230 -8.646090973446621E-1
144 61 9.878200391129388E-1
144 62 -1.700186190531157E-1
144 63 3.9586205621397635E-1
144 69 2.1431472707347515E-1
144 70 -4.2876007708581354E-1
144 71 -1.7773562540712175E-13
144 115 -4.4562623514281097E-1
144 116 4.5522651150469395E-1
144 117 -5.84142302984734E-1
144 118 8.76967357948028E-1
144 119 1.3438499397706118E-2
144 120 3.6924986142079597E-1
144 122 -1.1725184952957293
144 123 -1.55084941819219E-1
144 124 1.0189832469626192E-1
144 130 -3.6347612647788865
144 141 -4.355355491999173E1
144 142 1.86894323487769
144 143 -1.7346941021509068E1
144 144 5.644827697910241E1
144 145 -2.5470999752918093
144 146 1.8896018850567053E1
144 152 -9.720918188027683
144 153 2.912620636363608E-1
144 154 -1.8319457684043903
144 161 6.720933038335075E-1
144 162 2.8105110013164266E-13
145 61 -3.3519523851588545E-3
145 62 2.454850761768471E-1
145 63 -6.422006255208417E-1
145 69 -4.287600770858139E-1
145 70 8.441232930893187E-1
145 71 7.125172943942133E-14
145 115 3.510598448372222E-1
145 116 -6.065132381812519E-1
145 117 1.0925070003175001
145 118 -6.989483393627222E-2
145 119 5.421317406174438E-1
145 120 -2.731267500447981E-1
145 122 -2.1758494181970378E-1
145 123 -1.2838615477908382
145 124 -9.559436252952083E-1
145 130 6.720933038335076E-1
145 141 1.764776568209694
145 142 -3.861189904357505E1
145 143 5.521393506654887
145 144 -2.5470999752918093
145 145 5.124758073231173E1
145 146 -6.990331695778389
145 152 4.78762063638335E-1
145 153 -9.734333559858861
145 154 2.247702189666891
145 161 -2.6427134527893426
145 162 -1.117590324018175E-13
146 61 5.446715800031439E-1
146 62 -6.422006255208413E-1
146 63 1.990639792030179
146 69 -1.7696400970756705E-13
146 70 7.168035744441263E-14
146 71 1.9746154549840669
146 115 -6.330896964737875E-2
146 116 1.0925070003175
146 117 -3.006112780914432E-1
146 118 2.948450995262115E-1
146 119 -2.731267500447977E-1
146 120 1.6596103294175122
146 122 -5.677445324302615E-1
146 123 -9.559436252952085E-1
146 124 -3.8372064796316163
146 130 2.82287152535372E-13
146 141 -1.6305274354829983E1
146 142 5.521393506654888
146 143 -8.90357725569423E1
146 144 1.8896018850567053E1
146 145 -6.990331695778389
146 146 1.1509900607521988E2
146 152 -2.799207673188893
146 153 2.2477021896668905
146 154 -2.3135490089058216E1
146 161 -1.1250089045679174E-13
146 162 -4.414791247928039
147 85 9.236806645415323E-1
147 86 1.3677452646978677E-1
147 87 -3.558790537487936E-1
147 100 2.2406022333572917E-2
147 101 -1.656892796200238
147 102 -9.185540982126812E-1
147 134 -9.279552825706914E-1
147 135 5.864649821555522E-1
147 136 -1.8264893236280982E-1
147 137 8.024392932706281E-1
147 138 -1.8518697219630067E1
147 139 3.0991507416122765E-1
147 140 2.582625618010234
147 147 3.0925259447781592E1
147 148 -1.1152504998699815
147 149 -5.460167484907126
147 155 -2.5970718796297536
147 156 -9.093617063622464E-1
147 157 2.060991683387533
147 158 -1.4103491881857082
147 159 1.2009061297612242
147 160 1.471192974563018
147 200 -8.417272564640475
147 201 1.4474442898846767
148 85 6.787912768994228E-1
148 86 -7.458589498402795E-1
148 87 -2.462577967995684E-1
148 100 -1.6568927962002382
148 101 5.998618228794549E-1
148 102 -1.0248349510566143E-1
148 134 1.3222829873659997E-1
148 135 -2.2906653328275484
148 136 4.1221978861966097E-1
148 137 8.95285139378365E-2
148 138 4.3491507415995523E-1
148 139 -1.829651452113251E1
148 140 -1.9109772167288224
148 147 -1.1152504998699815
148 148 2.7990621115544194E1
148 149 2.2061086683883735
148 155 -5.801250229420226E-1
148 156 -1.4061994929686654
148 157 1.0988982458627208
148 158 6.588893793315899E-1
148 159 -1.9681320421129207
148 160 -1.5470367081745395
148 200 1.4474442898846778
148 201 -3.8831125995417217
149 85 -1.644476207706596E-1
149 86 -2.462577967995681E-1
149 87 1.7125942512785755
149 100 -9.185540982126811E-1
149 101 -1.0248349510566203E-1
149 102 2.9089816029458406
149 134 4.692192389404229E-2
149 135 4.122197886196599E-1
149 136 -2.406215887240456
149 137 -5.90033558945502
149 138 3.6242922846662973
149 139 -1.9109772167288224
149 140 -4.448717590730016E1
149 147 -5.460167484907126
149 148 2.2061086683883735
149 149 5.552061053366548E1
149 155 1.3849922557065657
149 156 1.0988982458627201
149 157 -3.943637836539997
149 158 6.84523446352936E-1
149 159 -1.5470367081745382
149 160 -3.404821167354269
149 200 8.024392932706281E-1
149 201 8.952851393783709E-2
150 112 7.309649528162178E-1
150 113 5.15964756438222E-1
150 114 2.166065924153504E-1
150 115 1.9742151527105767
150 116 -5.748130563240701E-1
150 117 9.409977452622827E-1
150 121 -1.7406050576198834E-1
150 131 -8.364026338695654
150 132 -8.571826585528651E-1
150 133 9.609915569082049E-1
150 134 1.7340472329674908E-2
150 135 4.052258375214263E-1
150 136 9.141680974462255E-2
150 150 1.581489791946154E1
150 151 5.036907091648402
150 158 -8.244242230815313
150 159 -3.377419828361193
150 160 -1.3402977901481545
150 211 -4.6692229698961674E-1
150 212 -2.504896281726962E-1
150 213 -1.1280935850589158
150 223 -1.4622276308174307
150 224 -8.981925141972257E-1
150 225 4.324391766385984E-1
151 112 3.239871841598615E-1
151 113 1.368107196449208E-1
151 114 -1.7944090135875548E-1
151 115 1.376169269236447E-1
151 116 2.3583373010183759E-1
151 117 8.666027131640414E-1
151 121 5.513737944292955E-1
151 131 -1.3750929476686267
151 132 -5.11478342656326
151 133 1.8067293795421056
151 134 7.136291876075614E-1
151 135 2.165207375635302E-1
151 136 -6.958720686797961E-1
151 150 5.036907091648402
151 151 1.820386267265826E1
151 158 -2.294086495028505
151 159 -1.3916643640834186E1
151 160 -1.234334202433623
151 211 -8.992460057236014E-1
151 212 6.126985505873657E-1
151 213 -1.2108180901351298
151 223 -1.643714941918737
151 224 -3.742993431584719E-1
151 225 9.575937547186181E-2
152 61 -2.1437500738957107
152 62 -3.191747090913384E-1
152 63 -9.116393289638682E-1
152 64 7.174361867343245E-1
152 65 -1.674758727351746E-1
152 66 5.518956493797388E-1
152 69 -2.464722229800722
152 70 -2.823205921493448E-1
152 71 -1.2326516832373215
152 122 7.527036467775667E-1
152 123 6.0169883636499014E-2
152 124 3.729484588616727E-1
152 130 2.8802844073086376E-1
152 144 -9.720918188027683
152 145 4.78762063638335E-1
152 146 -2.799207673188893
152 152 1.2571222217481363E1
152 153 -2.125061259529481E-1
152 154 4.306655217989877
152 161 4.425453526539719E-1
152 162 -2.8800064084120564E-1
153 61 -1.9417470909036894E-1
153 62 -2.1348064926749486
153 63 -1.498468126440438
153 64 2.0024127266799557E-2
153 65 4.142957512027065E-2
153 66 4.994893755648697E-1
153 69 -2.823205921493448E-1
153 70 -1.2858161215610264
153 71 -2.3082226910354398E-1
153 122 -6.483011636447047E-2
153 123 3.7006547211386603E-1
153 124 9.104225006104055E-2
153 130 4.425453526539719E-1
153 144 2.912620636363608E-1
153 145 -9.734333559858861
153 146 2.2477021896668905
153 152 -2.125061259529481E-1
153 153 1.2158105505682121E1
153 154 -1.4707637237625688
153 161 5.85355621178582E-1
153 162 3.6182030401374987E-1
154 61 -1.6759170994277E-1
154 62 -1.4984681264404387
154 63 -6.137245438744449
154 64 3.994740909006719E-1
154 65 -7.135562497354642E-2
154 66 1.855085691026874
154 69 -2.1292074234883276
154 70 -5.949912692094189E-1
154 71 -2.5396848389245963
154 122 5.254565800915811E-1
154 123 4.5521125016691555E-1
154 124 1.5749446209397868
154 130 -1.102840987146642
154 144 -1.8319457684043903
154 145 2.247702189666891
154 146 -2.3135490089058216E1
154 152 4.306655217989877
154 153 -1.4707637237625688
154 154 2.58315604683889E1
154 161 9.32665304552166E-1
154 162 2.5508295863717083
155 85 -3.174484062171579
155 86 1.3064118355569843E-1
155 87 1.6451043688302341E-1
155 100 1.2800988663342487
155 101 -9.839188196885686E-1
155 102 -1.8318805498201074
155 103 -6.542383298890113E-1
155 104 -2.9410219852930347E-1
155 105 5.609624012588735E-2
155 109 -1.4806506049662271E1
155 115 -3.4181122950807437
155 116 -1.0568627443040455
155 117 -1.4886996471055327
155 125 1.0420846363550549
155 126 1.8738117317653853
155 127 2.0040219114991498
155 130 2.1742606608974167
155 137 -2.04639009122158
155 141 -3.2710986647419107
155 142 3.982574690862613E-1
155 143 -3.2168314137675996E-1
155 147 -2.5970718796297536
155 148 -5.801250229420226E-1
155 149 1.3849922557065657
155 155 3.373484995151912E1
155 156 -2.6182237479987553
155 157 1.720220439233427E-1
155 158 -1.211792969667235E1
155 159 3.8493040962361125
155 160 1.1497044302760921E-1
155 161 -9.391213956638773E-1
155 162 1.6685575500992518
155 200 1.8081468627417907
155 201 1.0598281317386546
155 229 -8.394886832555424E-1
155 230 1.2348254825915145E-1
156 85 6.244824633656054E-1
156 86 -5.716573377338125
156 87 -2.2243475608757746
156 100 -9.839188196885689E-1
156 101 2.056180955762699
156 102 -1.2816840313370261
156 103 5.808978014706798E-1
156 104 -4.4893029261815585
156 105 3.0536269566059038E-2
156 109 -8.394886832555435E-1
156 115 -1.6026260608838023
156 116 -2.275378851014991
156 117 -1.2506317893825134
156 125 1.8738117317653846
156 126 8.385662905164061E-1
156 127 -1.6457392446153656
156 130 -9.391213956638783E-1
156 137 2.22876987446525
156 141 9.252495226096784E-1
156 142 -5.757446094764547
156 143 2.174549480595531
156 147 -9.093617063622464E-1
156 148 -1.4061994929686654
156 149 1.0988982458627201
156 155 -2.6182237479987553
156 156 3.869259847936347E1
156 157 6.513993534698151E-1
156 158 2.8284707629027896
156 159 -1.7785204901492413E1
156 160 -6.581082522336167E-1
156 161 2.685764581509406
156 162 1.246846833276507
156 200 1.0598281317386542
156 201 2.5572720163467113
156 229 -9.400276679738388
156 230 -3.704891787915868E-1
157 85 9.221595870767352E-1
157 86 -2.224347560875775
157 87 -4.846220758673649
157 100 -1.831880549820106
157 101 -1.2816840313370261
157 102 -1.5175424712860328
157 103 5.6096240144551834E-2
157 104 3.053626956605926E-2
157 105 -1.2161375402121521E-1
157 109 1.2348254825915078E-1
157 115 -2.164699074805166
157 116 -1.2506317893825134
157 117 -4.013078782418772
157 125 2.0040219114991498
157 126 -1.6457392446153662
157 127 2.7090672518847456
157 130 1.6685575500992516
157 137 4.304810366628987
157 141 -1.079332291561137
157 142 2.1745494805955308
157 143 -4.713554473275723
157 147 2.060991683387533
157 148 1.0988982458627208
157 149 -3.943637836539997
157 155 1.720220439233427E-1
157 156 6.513993534698151E-1
157 157 3.327015566401235E1
157 158 1.1497044301827637E-1
157 159 -6.581082522336168E-1
157 160 -1.2601923856973876E1
157 161 1.2468468332765075
157 162 -8.833861373699787E-1
157 200 -2.0463900912215798
157 201 2.22876987446525
157 229 -3.7048917879158666E-1
157 230 -7.643075211966843
158 109 1.4402277532247665
158 115 -2.811168501632747
158 116 2.4614329851101524E-1
158 117 -1.64027735323419
158 121 -8.194644568107899E-1
158 125 6.900242494246194E-1
158 126 -4.3132625975447E-1
158 127 2.4467931244897314
158 131 1.8931842079188523
158 132 3.4952236885766524E-1
158 133 2.825022355639324E-1
158 134 -9.555373291639531E-1
158 135 -5.009233430738671E-1
158 136 3.075387249522887E-1
158 137 -3.2128593140016815
158 147 -1.4103491881857082
158 148 6.588893793315899E-1
158 149 6.84523446352936E-1
158 150 -8.244242230815313
158 151 -2.294086495028505
158 155 -1.211792969667235E1
158 156 2.8284707629027896
158 157 1.1497044301827637E-1
158 158 3.4931066284188695E1
158 159 -6.412292989301625E-1
158 160 1.6465664279857397
158 200 -6.850899136082978
158 201 -1.6527151876621544
158 211 8.549433547574983E-1
158 212 2.361638139986904
158 213 -7.832954492784336E-1
158 223 -7.419319766961373
158 224 2.6704050066145006
158 225 8.555068405536138E-1
158 229 -3.5947883717553077
158 230 1.1749533040857602E-1
159 109 -3.594788371755306
159 115 2.874598814144519E-1
159 116 -1.523536069439095
159 117 -9.395667831826393E-2
159 121 -1.2343342024336226
159 125 -4.313262597544706E-1
159 126 1.3236916528136646
159 127 1.5697668304350745
159 131 3.4952236885766574E-1
159 132 -1.232215717213193
159 133 -2.6732223721262667
159 134 -1.0217566764075765
159 135 -1.757168686831105
159 136 1.7757946083702105
159 137 -2.1432944182981517
159 147 1.2009061297612242
159 148 -1.9681320421129207
159 149 -1.5470367081745382
159 150 -3.377419828361193
159 151 -1.3916643640834186E1
159 155 3.8493040962361125
159 156 -1.7785204901492413E1
159 157 -6.581082522336168E-1
159 158 -6.412292989301625E-1
159 159 4.233165381718395E1
159 160 3.0055452698388727
159 200 -1.6527151876621535
159 201 -5.141398737700072
159 211 2.3616381399869044
159 212 -3.78749009358071E-1
159 213 1.5980396322433417
159 223 2.670405006614502
159 224 -1.766102695287366
159 225 -8.292563894140995E-2
159 229 1.8138060302708137
159 230 4.837319296383697E-1
160 109 1.1749533040857693E-1
160 115 -2.426946881444271
160 116 -9.39566783182633E-2
160 117 -4.0802000332287225
160 121 -6.723114003905431
160 125 2.4467931244897296
160 126 1.5697668304350747
160 127 -2.9936581723071383
160 131 2.825022355639328E-1
160 132 -2.673222372126265
160 133 -1.0196890510076637
160 134 8.283720582803202E-1
160 135 1.775794608370211
160 136 -2.6226170090750633
160 137 -9.426578193400939
160 147 1.471192974563018
160 148 -1.5470367081745395
160 149 -3.404821167354269
160 150 -1.3402977901481545
160 151 -1.234334202433623
160 155 1.1497044302760921E-1
160 156 -6.581082522336167E-1
160 157 -1.2601923856973876E1
160 158 1.6465664279857397
160 159 3.0055452698388727
160 160 3.7437667232991046E1
160 200 -3.212859314001682
160 201 -2.1432944182981526
160 211 -7.832954492784332E-1
160 212 1.5980396322433417
160 213 8.291699495105166E-1
160 223 8.555068405536124E-1
160 224 -8.29256389414104E-2
160 225 -3.9582710682272493E-1
160 229 4.837319296383699E-1
160 230 5.001591411574267
161 69 -8.322291374705704E-1
161 70 -4.94971586237051
161 71 -1.995164209901143E-1
161 109 3.032583521389344E-1
161 115 -1.7132374462196482
161 116 -4.4949041189762945E-1
161 117 1.0400467145235605E-1
161 118 -2.57142656873722E-1
161 119 7.80712893417152E-1
161 120 -9.452655982448272E-15
161 122 -1.9687473166882946E-1
161 123 -1.61749220247408
161 124 -8.593742546222103E-1
161 125 2.4155938640944843
161 126 -9.57810284283161
161 127 2.0292583661502794
161 128 6.401582285914862E-1
161 130 -3.4421722580942395
161 141 2.9071285246785017
161 142 -7.7216512416777485
161 143 -2.138874711144547
161 144 6.720933038335075E-1
161 145 -2.6427134527893426
161 146 -1.1250089045679174E-13
161 152 4.425453526539719E-1
161 153 5.85355621178582E-1
161 154 9.32665304552166E-1
161 155 -9.391213956638773E-1
161 156 2.685764581509406
161 157 1.2468468332765075
161 161 2.7960564856642353E1
161 162 -8.835819564559085E-2
161 204 -1.0535038391260565
161 205 -2.878650726081784E-1
161 229 -3.99972809958052
161 230 -7.387865204205464E-1
162 69 -2.624628703518871E-1
162 70 -1.0328497543173574
162 71 -1.745719602113586
162 109 -2.514606293627348
162 115 9.360675595437111E-1
162 116 1.0400467145235678E-1
162 117 3.0365315058590747E-1
162 118 -9.72495393061127E-14
162 119 -1.0079038919126552E-14
162 120 2.297378758771115
162 122 -1.0081842043244034
162 123 -4.427075879584943E-1
162 124 -3.114714163227723
162 125 -1.103233553946271
162 126 2.8625916994775227
162 127 -5.414947644622596
162 128 -5.6884357387295E-1
162 130 1.0597353495625434
162 141 2.080970677758373
162 142 -2.1388747111445476
162 143 -4.506292257467327
162 144 2.8105110013164266E-13
162 145 -1.117590324018175E-13
162 146 -4.414791247928039
162 152 -2.8800064084120564E-1
162 153 3.6182030401374987E-1
162 154 2.5508295863717083
162 155 1.6685575500992518
162 156 1.246846833276507
162 157 -8.833861373699787E-1
162 161 -8.835819564559085E-2
162 162 2.2645470862743444E1
162 204 -1.3368673873347847E-1
162 205 -9.149600692942961E-1
162 229 -7.387865204205463E-1
162 230 -6.802521236448633
163 163 1.172897400608716E1
163 164 -1.9455261289062864E-1
163 165 6.538748467607021E-1
163 166 -2.0858509402471612
163 171 -5.224498571854664
163 172 9.159290982436292E-1
163 173 -1.9115150488240784
163 174 2.7118283602906934E-1
163 175 -6.869468236823196E-1
163 176 1.4336362866172203
163 177 -2.2995405861557436E-1
163 178 1.2849197465431172
163 179 -5.687915777460489E-1
163 182 -2.9384808954619457
163 183 -1.3430263332289454
163 184 5.945134465299851E-1
163 197 -1.5213723759368845
163 198 -3.907770363879078E-1
163 199 7.135562506679388E-2
163 342 4.1445396140305485E-1
163 343 -2.730735784045742E-1
164 163 -1.9455261289062864E-1
164 164 1.2975551945488121E1
164 165 -4.8297007685680455
164 166 -1.6887937192835367E-1
164 171 1.4992624315750371
164 172 -5.9834283103781
164 173 2.9735563032550405
164 174 -1.1244468236806193
164 175 8.403801399213133E-1
164 176 7.460232487440379E-1
164 177 1.2849197465431175
164 178 -1.5777186758978023
164 179 2.790502295634476E-1
164 182 -1.3430263332289454
164 183 -6.298018613648457
164 184 1.6560914563575653
164 197 4.67229636103923E-2
164 198 5.597638446531408E-2
164 199 -3.994740909066453E-1
164 342 -1.2742869950390534E-2
164 343 -4.255463784454007E-1
165 163 6.538748467607021E-1
165 164 -4.8297007685680455
165 165 1.4574961532101831E1
165 166 2.7307357840201224E-1
165 171 -1.9115150488240777
165 172 2.0806991603993437
165 173 -9.893807729594887
165 174 1.4336362866172194
165 175 -7.242913220658809E-2
165 176 -1.697621934957266
165 177 -1.1149387345526347
165 178 1.2136717583838341
165 179 5.731556780573004E-1
165 182 1.165358447070062
165 183 2.6269653957613297
165 184 -3.7779088268374568
165 197 -4.994893754732836E-1
165 198 -5.518956493597834E-1
165 199 2.83429817606072E-1
165 342 -4.673107644100903E-1
165 343 -6.22085363755962E-2
166 163 -2.0858509402471612
166 164 -1.6887937192835367E-1
166 165 2.7307357840201224E-1
166 166 1.1702066861687364E1
166 174 -1.1495307407691113
166 175 4.9410019627039464E-1
166 176 -1.79204535827231
166 182 -2.924801768962418
166 183 2.1411470096198952
166 184 -5.025435863400523E-1
166 342 -8.047289465580781E-2
166 343 5.968645684757852E-1
166 344 -1.7125973910116838
166 345 2.815680679499753E-1
166 346 -1.0150853078969926
166 353 -1.2057908659231527
166 354 -3.170452342874513E-1
166 355 6.420452307736908E-1
166 359 -2.224345052762435
166 360 5.220708036630454E-1
166 371 -7.665432398985093E-1
166 372 -1.2607272020621763E-1
166 373 1.2756200711948211
166 377 -1.8569519148753262
167 3 -1.8940882360059557
167 4 -1.587314435328385
167 5 -1.9757318059837852
167 6 -1.9231404840947608
167 7 1.7540021667604655E-1
167 15 8.548074532958893E-1
167 16 4.582786830706579E-1
167 24 1.0330803255370595
167 25 -1.8861664768192457
167 46 -3.29437647551783
167 51 -9.719151863590012
167 69 2.2297683595029936
167 70 -3.7504656230319267
167 71 -1.483471171388508E-1
167 109 -9.800453313871071E-1
167 128 -2.1709331843960897
167 167 2.8736594220211224E1
167 185 2.048334966150139
167 186 -8.638860617061605
167 187 3.4685584360856403
167 188 8.548074532868563E-1
167 189 -2.973279936317391E-1
167 190 -3.2932275689601254E-1
167 204 -2.966539650691854
167 205 -1.9404233554443004
167 229 1.8532684874085028
167 230 1.7893368057944494
168 168 1.2094193081727138E1
168 169 1.604070654448983E-1
168 170 6.876973496146306E-1
168 171 -1.5835748338550728
168 172 3.181560115278621E-1
168 173 5.740982997441066E-1
168 174 -9.822505614839494E-1
168 175 -4.1735813706349656E-1
168 176 -1.7920453582706306
168 185 -1.540645736267709
168 186 2.141532910918508
168 187 5.687915777460492E-1
168 191 -3.1019806362456244
168 192 -2.2383772220621587
168 193 -5.945134465299862E-1
168 208 -1.916199916520272
168 209 -4.041637132923131E-1
168 210 -1.1022160692929663
168 226 -8.836904570899027E-1
168 227 2.5349123120910477E-2
168 228 1.3851140685842223
168 347 -2.085850940264609
168 348 4.1445396140579E-1
168 349 2.730735784045744E-1
169 168 1.604070654448983E-1
169 169 1.4209162611007411E1
169 170 4.6425145523583105
169 171 4.490020999647868E-1
169 172 -4.1870424698496445
169 173 -3.21476118239048
169 174 -1.146524803731863
169 175 6.851028868673978E-1
169 176 -5.233028704552924E-1
169 185 2.141532910918508
169 186 -4.619011234437348
169 187 -2.7905022956344844E-1
169 191 -2.2383772220621583
169 192 -6.952851506821755
169 193 -1.6560914563575666
169 208 4.8323531606019876E-2
169 209 -2.848166140266378E-1
169 210 4.377392445737762E-1
169 226 7.545157897892778E-1
169 227 1.1621991972147294
169 228 1.6740556338929852E-1
169 347 -1.688793719294691E-1
169 348 -1.274286995415308E-2
169 349 4.255463784454012E-1
170 168 6.876973496146306E-1
170 169 4.6425145523583105
170 170 1.2743784652097906E1
170 171 5.740982997441069E-1
170 172 -2.3356242776299334
170 173 -6.14863169536812
170 174 -1.79204535827063
170 175 2.95149510495334E-1
170 176 -1.8650027006402206
170 185 1.1149387345526351
170 186 -1.2136717583838348
170 187 -1.1061218303116933
170 191 -1.1653584470700644
170 192 -2.6269653957613306
170 193 -3.556154563984268
170 208 -5.313710687528885E-1
170 209 2.3185723159889798E-1
170 210 -5.636372440365095E-1
170 226 1.3851140685842231
170 227 5.394293729124657E-1
170 228 5.579719186281069E-1
170 347 -2.7307357840201263E-1
170 348 4.673107644100907E-1
170 349 -6.2208536385202406E-2
171 163 -5.224498571854664
171 164 1.4992624315750371
171 165 -1.9115150488240777
171 168 -1.5835748338550728
171 169 4.490020999647868E-1
171 170 5.740982997441069E-1
171 171 4.25843886949644E1
171 172 -5.233623919340701
171 173 1.8388662231659803
171 174 -1.2773287752465013E1
171 175 4.859011420176322
171 176 2.048051838022506E-1
171 177 -8.113843012988832
171 178 3.7611599230806574
171 179 1.6384414704197583
171 182 9.07602141562584E-1
171 183 -3.4401842436755956
171 184 -1.7125350016202336
171 185 1.7873598538486886
171 186 2.9983245317795273
171 187 -1.638441470419755
171 191 -1.1595702714565809E-2
171 192 -3.624977332642575
171 193 1.7125350016202312
171 197 -1.2709099623843287E-1
171 198 -7.447409878674291E-1
171 199 1.4984681264182758
171 214 -2.497870164349452
171 215 -8.574696858186237E-2
171 216 2.500038671503694E-1
171 226 -1.4947589655909653E1
171 227 -4.374869544681669E-1
171 228 -2.454726651456906
172 163 9.159290982436292E-1
172 164 -5.9834283103781
172 165 2.0806991603993437
172 168 3.181560115278621E-1
172 169 -4.1870424698496445
172 170 -2.3356242776299334
172 171 -5.233623919340701
172 172 3.884036588759237E1
172 173 4.08731025872063E-1
172 174 3.6923447535096554
172 175 -7.174613290075341
172 176 -1.2726878759375704E-1
172 177 3.7611599230806574
172 178 -1.5217289543980602E1
172 179 -2.76270387217571
172 182 -3.440184243675596
172 183 3.4210789297074014
172 184 -2.0197646753570018
172 185 2.9983245317795264
172 186 -7.860485280857027E-2
172 187 2.762703872175705
172 191 -3.624977332642575
172 192 -1.7249059288894442
172 193 2.019764675357001
172 197 -4.530743212019811E-1
172 198 -1.4795935242753663E-1
172 199 1.6759170998607048E-1
172 214 6.284324531864712E-1
172 215 6.752765247961592E-1
172 216 -7.135911994411482E-1
172 226 4.375130455330513E-1
172 227 -8.422877593686701
172 228 5.194623684073668E-1
173 163 -1.9115150488240784
173 164 2.9735563032550405
173 165 -9.893807729594887
173 168 5.740982997441066E-1
173 169 -3.21476118239048
173 170 -6.14863169536812
173 171 1.8388662231659803
173 172 4.08731025872063E-1
173 173 3.602267035382621E1
173 174 2.048051838022509E-1
173 175 -1.2726878759375712E-1
173 176 -4.758968331429772
173 177 1.6384414704197594
173 178 -2.7627038721757105
173 179 -7.740817263637285
173 182 -1.7125350016202345
173 183 -2.0197646753570018
173 184 2.360149038918818
173 185 -1.6384414704197545
173 186 2.762703872175706
173 187 -1.5665191954356428E-1
173 191 1.7125350016202319
173 192 2.019764675357001
173 193 1.7788648781396355E-1
173 197 1.4984681264182755
173 198 9.116393290311874E-1
173 199 -2.1849289736940065
173 214 2.5000386715036943E-1
173 215 -7.27311437536299E-1
173 216 8.343877297452327E-1
173 226 -2.4547266514569066
173 227 -2.2458525063775048E-1
173 228 -8.511287697036593
174 163 2.7118283602906934E-1
174 164 -1.1244468236806193
174 165 1.4336362866172194
174 166 -1.1495307407691113
174 168 -9.822505614839494E-1
174 169 -1.146524803731863
174 170 -1.79204535827063
174 171 -1.2773287752465013E1
174 172 3.6923447535096554
174 173 2.048051838022509E-1
174 174 3.354952115271244E1
174 175 -1.129204585528563
174 176 3.072077757034292E-1
174 182 -3.4075012239259155
174 183 -8.749999999987611E-1
174 184 1.8520360193984552E-15
174 191 -3.585933415140344
174 192 8.749999999987685E-1
174 193 -1.4681225848744534E-15
174 342 1.2232668629349495
174 343 -1.79204535827231
174 347 9.275064481514639E-2
174 348 1.0630531763195588
174 349 1.4336362866179257
174 353 -1.2014950939772316E1
174 354 -2.578488579823128
174 355 2.0480518380211338E-1
175 163 -6.869468236823196E-1
175 164 8.403801399213133E-1
175 165 -7.242913220658809E-2
175 166 4.9410019627039464E-1
175 168 -4.1735813706349656E-1
175 169 6.851028868673978E-1
175 170 2.95149510495334E-1
175 171 4.859011420176322
175 172 -7.174613290075341
175 173 -1.2726878759375712E-1
175 174 -1.129204585528563
175 175 2.7750286018751357E1
175 176 -2.3492467104767906E-2
175 182 -8.749999999987621E-1
175 183 -8.518753059814806
175 184 -3.1249999999955858
175 191 8.749999999987665E-1
175 192 -8.964833537850879
175 193 3.124999999995582
175 342 2.669024386702698E-1
175 343 -2.1070727598877848E-2
175 347 6.255531763174478E-1
175 348 3.942996618804009E-1
175 349 -1.4683389411120173E-1
175 353 -3.7451552464897917
175 354 -5.27877125834971
175 355 9.594549811986182E-2
176 163 1.4336362866172203
176 164 7.460232487440379E-1
176 165 -1.697621934957266
176 166 -1.79204535827231
176 168 -1.7920453582706306
176 169 -5.233028704552924E-1
176 170 -1.8650027006402206
176 171 2.048051838022506E-1
176 172 -1.2726878759375704E-1
176 173 -4.758968331429772
176 174 3.072077757034292E-1
176 175 -2.3492467104767906E-2
176 176 2.3223996130937987E1
176 182 3.7340296492144086E-16
176 183 -3.124999999995587
176 184 -3.407501223925921
176 191 -2.717099106485312E-16
176 192 3.124999999995583
176 193 -3.5859334151403455
176 342 7.973816533528153E-1
176 343 -2.032282879939047
176 347 1.433636286617927
176 348 -9.652862750628941E-1
176 349 -1.8760541261659671
176 353 2.0480518380211277E-1
176 354 9.594549811986114E-2
176 355 -4.0006315187394454
177 1 -4.634174426935508
177 2 1.5509972642071888
177 24 2.8902352653299346
177 25 -8.348928592910352E-1
177 26 2.097277233953393
177 32 -4.739099061897488
177 51 5.37569401222715E-1
177 75 -4.40961134543061
177 109 -6.110911605958075
177 163 -2.2995405861557436E-1
177 164 1.2849197465431175
177 165 -1.1149387345526347
177 171 -8.113843012988832
177 172 3.7611599230806574
177 173 1.6384414704197594
177 177 5.4171067967953135E1
177 178 1.223074022160127
177 179 1.3915829975400407
177 180 -7.3385914847856855
177 181 -2.547377192918691
177 182 -1.514205494466137E1
177 183 9.649347762817853E-1
177 184 -1.6867793154824844
177 185 -2.431614074735586
177 186 -2.706831446021847E-1
177 187 -2.662049102495651
177 188 6.292936722465381E-1
177 189 -2.608938761018953
177 190 3.1374381188219718
177 191 2.57172994032213
177 192 2.307339982653259
177 193 3.315244866259394
177 197 -1.5502598858265442
177 198 -6.587480483377075E-1
177 199 5.949912691926713E-1
177 202 1.3370841904209905
177 203 3.042392359086294
177 214 1.5774445377598745
177 215 -2.052400470301675
177 216 3.1323788553793197E-1
177 217 -1.0756254255467972E1
177 218 -2.5596466943754503
177 219 1.2321897281468985
177 226 -1.1225022882058666
177 227 -2.6348134406250745
177 228 -3.206812464211414
177 229 2.0109703448424914
177 230 -4.163666290260242
178 1 2.097277233953394
178 2 -4.536634125490214
178 24 5.375694012227146E-1
178 25 3.6021183043656237
178 26 -8.88432245721857
178 32 -7.6118689444430565
178 51 -3.641567499518299
178 75 1.3370841904209896
178 109 2.0109703448424914
178 163 1.2849197465431172
178 164 -1.5777186758978023
178 165 1.2136717583838341
178 171 3.7611599230806574
178 172 -1.5217289543980602E1
178 173 -2.7627038721757105
178 177 1.223074022160127
178 178 5.1456132595836216E1
178 179 3.714005945030279
178 180 -4.739099061897489
178 181 -2.0188187113372855
178 182 9.649347762817857E-1
178 183 -5.687357516925209
178 184 5.280322571033966E-1
178 185 -2.7068314460218434E-1
178 186 -3.361028015306027E-1
178 187 -8.533087903169151E-1
178 188 -2.608938761018952
178 189 -8.570881747783287E-1
178 190 2.401172747178941
178 191 2.3073399826532577
178 192 5.885919929656788
178 193 -9.450840279889117E-1
178 197 -6.587480483377077E-1
178 198 -4.3010408050299125
178 199 2.129207423547971
178 202 -1.7981885429490316
178 203 -9.998602660323159E-1
178 214 -2.0524004703016745
178 215 -4.572824673330977E-3
178 216 -7.895055373836833E-1
178 217 -2.559646694375451
178 218 -5.5965899045413545
178 219 1.2265924177289493
178 226 -2.6348134406250745
178 227 -2.3080360737347325
178 228 -2.7472233459917885
178 229 4.79691239727823E-1
178 230 8.383378233778305E-1
179 1 1.2792489754479681
179 2 -7.686186683408339
179 24 -8.348928592910352E-1
179 25 2.23731502027281
179 26 -3.4924394494938906
179 32 -1.1437209920368165
179 51 3.6021183043656246
179 75 2.156561359201821
179 109 -4.163666290260241
179 163 -5.687915777460489E-1
179 164 2.790502295634476E-1
179 165 5.731556780573004E-1
179 171 1.6384414704197583
179 172 -2.76270387217571
179 173 -7.740817263637285
179 177 1.3915829975400407
179 178 3.714005945030279
179 179 4.240379180797567E1
179 180 -1.8435243497345972
179 181 -4.64268791915301
179 182 -5.816976933960198E-1
179 183 4.3621853348726125E-1
179 184 -6.294588353326178
179 185 -2.662049102495652
179 186 -8.533087903169155E-1
179 187 -1.017601096763148E1
179 188 3.137438118821973
179 189 2.401172747178941
179 190 -6.508414358050925E-2
179 191 3.3152448662593934
179 192 -9.450840279889123E-1
179 193 2.4164713914225464
179 197 2.3082226908646505E-1
179 198 1.2326516832881933
179 199 -2.3009869629607023
179 202 -6.390188114892911E-1
179 203 -4.280547860761595
179 214 3.1323788553793225E-1
179 215 -7.895055373836838E-1
179 216 1.861305926068587
179 217 3.988563948196545E-1
179 218 8.694495605854313E-1
179 219 -4.421467658780284
179 226 -3.2068124642114144
179 227 -2.7472233459917885
179 228 -2.022199093101888
179 229 8.383378233778309E-1
179 230 1.3853708254434932E-1
180 1 -4.214970156858038
180 2 2.355049409228644
180 24 -4.189463893786066
180 25 -3.4134721347048926
180 26 9.470223583058488E-1
180 27 -2.445146919407174
180 28 1.5359029127715296
180 29 6.456588640301992E-1
180 32 1.2148154246972913
180 49 -3.316448210221004
180 50 1.648288942647422
180 51 2.2565197404669304
180 177 -7.3385914847856855
180 178 -4.739099061897489
180 179 -1.8435243497345972
180 180 3.7533403848167296E1
180 181 -1.381768065270966
180 182 -2.904807891598339
180 183 3.2566095583212453
180 184 4.9665117987514207E-1
180 188 -1.0018846317438945E-1
180 189 4.722216134036177E-1
180 190 9.699397480743905E-1
180 282 -1.4003222691877562
180 283 -1.9316196209714347
180 284 -1.3960836427104333
180 306 -2.3439021383233998
180 364 3.0407528512346416E-1
180 381 -1.2596010631046443E1
180 382 1.919260048565092
181 1 1.2592277431139878
181 2 -9.034316563482241E-1
181 24 -3.413472134704892
181 25 -1.1413141841127605
181 26 3.2932275689601237E-1
181 27 3.3729323855588905E-1
181 28 -1.730175129099497
181 29 -3.450056091599682
181 32 3.0743439899732192
181 49 3.4592566948502723
181 50 -2.893118748961567
181 51 1.659789619112579
181 177 -2.547377192918691
181 178 -2.0188187113372855
181 179 -4.64268791915301
181 180 -1.381768065270966
181 181 2.8155206168854384E1
181 182 9.933023597502841E-1
181 183 -2.1166796450088188
181 184 -3.23583462565786
181 188 9.699397480743903E-1
181 189 -2.6019959091506992
181 190 -6.638769846159762
181 282 -7.969131564709186E-1
181 283 -2.0493494207200086E-1
181 284 -3.760566258190877E-1
181 306 1.6482889426474223
181 364 1.4989127583621756E-1
181 381 2.9314785172234945
181 382 -4.87393647104243
182 32 3.2566095583212458
182 163 -2.9384808954619457
182 164 -1.3430263332289454
182 165 1.165358447070062
182 166 -2.924801768962418
182 171 9.07602141562584E-1
182 172 -3.440184243675596
182 173 -1.7125350016202345
182 174 -3.4075012239259155
182 175 -8.749999999987621E-1
182 176 3.7340296492144086E-16
182 177 -1.514205494466137E1
182 178 9.649347762817857E-1
182 179 -5.816976933960198E-1
182 180 -2.904807891598339
182 181 9.933023597502841E-1
182 182 5.0704081032311805E1
182 183 3.1995582975903156
182 184 -1.0970403991712059
182 188 5.932313216062342
182 189 1.461846325594076
182 190 -1.489953539625424
182 191 -9.91549489811408
182 192 -1.938204902890072
182 193 1.1464302859532411
182 342 2.1411470096198957
182 343 -1.028262988622788
182 353 2.9125050694754355
182 354 3.526284269877844
182 355 1.5771582068482102
182 359 -1.7891855306787188
182 360 4.4787810301014847E-1
182 364 -5.164779226813067
182 377 -1.4419967333924305E1
182 381 -8.80339250276379
182 382 5.793622198037249E-1
183 32 -8.420613298204168
183 163 -1.3430263332289454
183 164 -6.298018613648457
183 165 2.6269653957613297
183 166 2.1411470096198952
183 171 -3.4401842436755956
183 172 3.4210789297074014
183 173 -2.0197646753570018
183 174 -8.749999999987611E-1
183 175 -8.518753059814806
183 176 -3.124999999995587
183 177 9.649347762817853E-1
183 178 -5.687357516925209
183 179 4.3621853348726125E-1
183 180 3.2566095583212453
183 181 -2.1166796450088188
183 182 3.1995582975903156
183 183 4.598252128037004E1
183 184 -1.0316090072790627
183 188 1.4618463255940748
183 189 3.2794222921670917
183 190 3.175019467513229
183 191 -1.938204902890071
183 192 -6.799248039310182
183 193 3.0645010360397457E-1
183 342 -7.101272356172501
183 343 2.4896862671810895
183 353 3.5262842698778423
183 354 4.752050969443518
183 355 -1.8584925085951975
183 359 -5.766432138127989
183 360 2.919032418208269E-1
183 364 -8.843378449484735
183 377 -1.7891855306787205
183 381 -5.164779226813065
183 382 8.253028268679564E-1
184 32 -1.0583398225044098
184 163 5.945134465299851E-1
184 164 1.6560914563575653
184 165 -3.7779088268374568
184 166 -5.025435863400523E-1
184 171 -1.7125350016202336
184 172 -2.0197646753570018
184 173 2.360149038918818
184 174 1.8520360193984552E-15
184 175 -3.1249999999955858
184 176 -3.407501223925921
184 177 -1.6867793154824844
184 178 5.280322571033966E-1
184 179 -6.294588353326178
184 180 4.9665117987514207E-1
184 181 -3.23583462565786
184 182 -1.0970403991712059
184 183 -1.0316090072790627
184 184 3.582823971515054E1
184 188 -1.4899535396254246
184 189 3.17501946751323
184 190 2.631924430922699
184 191 1.1464302859532405
184 192 3.06450103603973E-1
184 193 -1.2385532110555422E1
184 342 1.5725697166969963
184 343 -3.476218329552017
184 353 1.5771582068482095
184 354 -1.8584925085951975
184 355 2.810620553176245
184 359 2.0443735872018123E-1
184 360 -6.011415710528156
184 364 1.6506056537359144
184 377 1.5153742834253678
184 381 1.158724439607453
184 382 -5.041934557785291
185 3 -4.866880632432249
185 4 -1.6523157771256318
185 24 6.860992674871122
185 25 8.955829554745546E-1
185 51 -1.1268049953272001
185 109 -6.1247469410070785
185 128 -4.41021553155354
185 167 2.048334966150139
185 168 -1.540645736267709
185 169 2.141532910918508
185 170 1.1149387345526351
185 171 1.7873598538486886
185 172 2.9983245317795264
185 173 -1.6384414704197545
185 177 -2.431614074735586
185 178 -2.7068314460218434E-1
185 179 -2.662049102495652
185 185 4.804849828191681E1
185 186 3.229210458914324
185 187 4.038344490695861
185 188 -1.097811190035866E1
185 189 -4.072985520728866
185 190 -5.900609259032864E-1
185 191 -1.075272307594648E1
185 192 4.578219419535738E-1
185 193 -1.6284655507769097
185 204 1.3375304395642196
185 205 -3.042392359086289
185 208 -4.611169027454423E-1
185 209 -1.021971735345357
185 210 -7.406325688124454E-1
185 220 -7.448719845866831
185 221 -2.527324544894082
185 222 -1.2996774563318103
185 226 -7.682076169723038
185 227 -4.704836624796755
185 228 3.046981953198736
185 229 1.5118513164141527
185 230 4.158187077029995
186 3 2.04833496615014
186 4 4.512753112081964
186 24 -1.1268049953272004
186 25 -3.5878135049863364
186 51 -2.3532020723798142E-1
186 109 1.5118513164141532
186 128 1.33753043956422
186 167 -8.638860617061605
186 168 2.141532910918508
186 169 -4.619011234437348
186 170 -1.2136717583838348
186 171 2.9983245317795273
186 172 -7.860485280857027E-2
186 173 2.762703872175706
186 177 -2.706831446021847E-1
186 178 -3.361028015306027E-1
186 179 -8.533087903169155E-1
186 185 3.229210458914324
186 186 4.039640825585067E1
186 187 -2.200753918731676
186 188 -4.072985520728865
186 189 -7.5675391558403025
186 190 -3.8235403584165817E-1
186 191 4.5782194195357295E-1
186 192 -1.7317630756427838
186 193 4.170517708855185E-1
186 204 -1.7979211719953274
186 205 9.998602660323171E-1
186 208 -1.0219717353453575
186 209 -2.6054344392426505
186 210 -1.7621234345723071
186 220 -2.5273245448940824
186 221 -3.3955834116312054
186 222 -1.056491872528527
186 226 -4.704836624796755
186 227 -9.719168035582927
186 228 3.150070764242829
186 229 3.289007471606258E-1
186 230 -7.8592247005708E-1
187 3 -1.3805674883664119
187 4 -8.030619657764472
187 24 8.955829554745546E-1
187 25 4.5876500237661055
187 51 -3.5878135049863364
187 109 4.158187077029995
187 128 -2.1565613592018185
187 167 3.4685584360856403
187 168 5.687915777460492E-1
187 169 -2.7905022956344844E-1
187 170 -1.1061218303116933
187 171 -1.638441470419755
187 172 2.762703872175705
187 173 -1.5665191954356428E-1
187 177 -2.662049102495651
187 178 -8.533087903169151E-1
187 179 -1.017601096763148E1
187 185 4.038344490695861
187 186 -2.200753918731676
187 187 3.721436195320419E1
187 188 -1.2939137690873803
187 189 -1.2574517551421276
187 190 -5.709921759747678
187 191 -2.7335471728633736
187 192 5.088654945016546E-1
187 193 -3.7729926333193737
187 204 6.390188114892914E-1
187 205 -4.279807703095194
187 208 -3.76463568706238E-1
187 209 -8.655676943125296E-1
187 210 -8.330866152237195E-1
187 220 -4.6634412300456596E-1
187 221 -6.993490153850087E-1
187 222 -2.1671864775079204
187 226 3.046981953198736
187 227 3.1500707642428294
187 228 -5.594613662795315
187 229 -7.859224700570804E-1
187 230 2.5001249970113992E-2
188 3 -3.7610438689576373
188 4 -2.3550494092286427
188 5 -2.3678392017031236
188 6 1.3936272431094412
188 7 -6.528036806434185E-1
188 24 -8.848130683447998
188 25 3.4168912000566154
188 32 4.7222161340361707E-1
188 49 -3.3911616504970175
188 50 -1.6442399534462497
188 51 4.037952500662065
188 167 8.548074532868563E-1
188 177 6.292936722465381E-1
188 178 -2.608938761018952
188 179 3.137438118821973
188 180 -1.0018846317438945E-1
188 181 9.699397480743903E-1
188 182 5.932313216062342
188 183 1.4618463255940748
188 184 -1.4899535396254246
188 185 -1.097811190035866E1
188 186 -4.072985520728865
188 187 -1.2939137690873803
188 188 5.439663976069268E1
188 189 -1.99729692221099E-1
188 190 -5.58434668817491E-1
188 191 -1.1741928999259041E1
188 192 5.051372791048421
188 193 9.933023597502872E-1
188 297 -1.4003222691877488
188 298 1.3960836427104308
188 306 -4.496603123577528
188 364 4.548035259118639E-1
188 365 -1.9316196209714311
188 369 -1.5221962075789752
188 381 -3.489545115958668
188 382 -3.4163143072522573
188 390 -1.3774533023376776E1
188 391 1.4970542586871665
189 3 8.54807453286856E-1
189 4 -7.273453178207034E-2
189 5 1.3936272431094423
189 6 -7.432266448258705
189 7 2.72850682369612
189 24 4.0379525006620645
189 25 -1.658505844343805
189 32 -5.680255510349432E-1
189 49 -1.181065433013909E1
189 50 -3.457736399201966
189 51 -3.785440761355719
189 167 -2.973279936317391E-1
189 177 -2.608938761018953
189 178 -8.570881747783287E-1
189 179 2.401172747178941
189 180 4.722216134036177E-1
189 181 -2.6019959091506992
189 182 1.461846325594076
189 183 3.2794222921670917
189 184 3.17501946751323
189 185 -4.072985520728866
189 186 -7.5675391558403025
189 187 -1.2574517551421276
189 188 -1.99729692221099E-1
189 189 5.428230372213492E1
189 190 2.129526460448786
189 191 5.051372791048423
189 192 -2.0120648888575456E1
189 193 -2.116679645008827
189 297 -1.9316196209714325
189 298 1.0066865394624673
189 306 -3.3911616504970166
189 364 2.372795764149795
189 365 -2.440946250561703
189 369 -5.0545842242758185
189 381 4.548035259118631E-1
189 382 -4.5851508511931854E-1
189 390 -1.5221962075789761
189 391 1.8270713144926726E-1
190 3 -1.2592277431139867
190 4 -7.067118638035859E-1
190 5 -3.444380551691089E-1
190 6 1.727492426561816
190 7 -3.400621412440025
190 24 3.416891200056614
190 25 -3.62005407992577
190 32 -2.6019959091506983
190 49 -3.457736399201965
190 50 -5.153596515817219
190 51 -1.658505844343805
190 167 -3.2932275689601254E-1
190 177 3.1374381188219718
190 178 2.401172747178941
190 179 -6.508414358050925E-2
190 180 9.699397480743905E-1
190 181 -6.638769846159762
190 182 -1.489953539625424
190 183 3.175019467513229
190 184 2.631924430922699
190 185 -5.900609259032864E-1
190 186 -3.8235403584165817E-1
190 187 -5.709921759747678
190 188 -5.58434668817491E-1
190 189 2.129526460448786
190 190 3.828653555721614E1
190 191 4.966511798751449E-1
190 192 -1.058339822504417
190 193 -9.103593682238431
190 297 7.96913156470918E-1
190 298 -3.7605662581908333E-1
190 306 -1.6442399534462502
190 364 -4.5851508511931843E-1
190 365 2.0493494207199958E-1
190 369 3.086238092831026E-1
190 381 -3.416314307252257
190 382 -3.19071243373963E-1
190 390 4.848357900287635E-1
190 391 -5.82497881523282
191 168 -3.1019806362456244
191 169 -2.2383772220621583
191 170 -1.1653584470700644
191 171 -1.1595702714565809E-2
191 172 -3.624977332642575
191 173 1.7125350016202319
191 174 -3.585933415140344
191 175 8.749999999987665E-1
191 176 -2.717099106485312E-16
191 177 2.57172994032213
191 178 2.3073399826532577
191 179 3.3152448662593934
191 182 -9.91549489811408
191 183 -1.938204902890071
191 184 1.1464302859532405
191 185 -1.075272307594648E1
191 186 4.5782194195357295E-1
191 187 -2.7335471728633736
191 188 -1.1741928999259041E1
191 189 5.051372791048423
191 190 4.966511798751449E-1
191 191 5.530662054094082E1
191 192 -6.418251857098329E-1
191 193 -1.1958201727352715
191 347 -2.7925064063085125
191 348 1.2846882057818596
191 349 1.028262988622787
191 353 -1.5997636844765084
191 354 3.4275707504895765
191 355 -1.5771582068482082
191 359 8.783756567198417E-1
191 360 -3.2024885412456587
191 364 -7.047389350167595E-1
191 366 -3.602816648645088E-2
191 369 -5.098017583837449
191 377 -3.197048097183666
191 381 9.414672635922358
191 382 -1.7380866594111808
191 384 -1.1942788900606931E1
191 385 2.7546104382355097
191 390 -8.651259301189555
191 391 1.1587244396074499
192 168 -2.2383772220621587
192 169 -6.952851506821755
192 170 -2.6269653957613306
192 171 -3.624977332642575
192 172 -1.7249059288894442
192 173 2.019764675357001
192 174 8.749999999987685E-1
192 175 -8.964833537850879
192 176 3.124999999995583
192 177 2.307339982653259
192 178 5.885919929656788
192 179 -9.450840279889123E-1
192 182 -1.938204902890072
192 183 -6.799248039310182
192 184 3.06450103603973E-1
192 185 4.578219419535738E-1
192 186 -1.7317630756427838
192 187 5.088654945016546E-1
192 188 5.051372791048421
192 189 -2.0120648888575456E1
192 190 -1.058339822504417
192 191 -6.418251857098329E-1
192 192 5.751149695574419E1
192 193 4.187088000711281E-1
192 347 1.284688205781861
192 348 -6.347403954516233
192 349 -2.4896862671810864
192 353 3.4275707504895747
192 354 -3.618245261574609
192 355 1.858492508595195
192 359 3.1155610275695835
192 360 -4.0724520784176776E-1
192 364 1.1888262071719313
192 366 -2.7214889237892645
192 369 -8.720415003171894
192 377 8.78375656719842E-1
192 381 -7.047389350167598E-1
192 382 -2.4759084806038736
192 384 -3.6028166486450686E-2
192 385 1.1534196602094246E-1
192 390 -5.098017583837448
192 391 1.6506056537359115
193 168 -5.945134465299862E-1
193 169 -1.6560914563575666
193 170 -3.556154563984268
193 171 1.7125350016202312
193 172 2.019764675357001
193 173 1.7788648781396355E-1
193 174 -1.4681225848744534E-15
193 175 3.124999999995582
193 176 -3.5859334151403455
193 177 3.315244866259394
193 178 -9.450840279889117E-1
193 179 2.4164713914225464
193 182 1.1464302859532411
193 183 3.0645010360397457E-1
193 184 -1.2385532110555422E1
193 185 -1.6284655507769097
193 186 4.170517708855185E-1
193 187 -3.7729926333193737
193 188 9.933023597502872E-1
193 189 -2.116679645008827
193 190 -9.103593682238431
193 191 -1.1958201727352715
193 192 4.187088000711281E-1
193 193 4.0450203498944724E1
193 347 5.025435863400513E-1
193 348 -1.5725697166969936
193 349 -3.6307791641787848
193 353 -1.5771582068482077
193 354 1.8584925085951958
193 355 -4.562807002140686E-1
193 359 -4.0724520784176743E-1
193 360 -2.3282019889737885E-2
193 364 -2.475908480603875
193 366 2.028078491215879E-1
193 369 8.253028268679545E-1
193 377 -3.2024885412456605
193 381 -1.7380866594111808
193 382 3.0295710980269344
193 384 1.6871142578202902
193 385 -4.596248671155895
193 390 5.793622198037223E-1
193 391 -4.963335515531839
194 134 -5.089285714276835E-2
194 135 1.4583333332317663E-2
194 136 -2.6041666666525254E-1
194 137 -3.869289111564961E-1
194 194 1.1371775264103539E1
194 195 -4.589659942234038E-1
194 196 1.6157928652714348
194 197 -3.7518396662070286E-1
194 198 1.4039639514647975E-1
194 199 -4.552112501333164E-1
194 200 -5.400637350647182E-2
194 201 4.014957753953742E-1
194 211 -9.147553038528915
194 212 7.237297284768338E-1
194 213 -1.9118872505571158
194 214 1.0099822559357356E-1
194 215 -3.618648642386474E-1
194 216 9.559436252791672E-1
194 217 -1.8451372538982544
194 218 -4.593743738889541E-1
194 219 4.4270758796157833E-1
195 134 1.6041666666513457E-1
195 135 3.866071428556823E-1
195 136 -2.604166666662367E-1
195 137 6.843137620833104E-1
195 194 -4.589659942234038E-1
195 195 1.304543346711134E1
195 196 -5.100784949099902
195 197 -1.5127027151896835E-1
195 198 5.176384409164507E-1
195 199 -5.254565800877958E-1
195 200 4.014957753953743E-1
195 201 -8.601626538601255E-1
195 211 1.0153963951422815
195 212 -9.667153950161572
195 213 3.6264156969367205
195 214 -5.076981975714643E-1
195 215 3.6079868141006727E-1
195 216 5.677445324720068E-1
195 217 -4.5937437388895364E-1
195 218 -3.7831611282718427
195 219 1.0081842043618972
196 134 -6.770833333289686E-1
196 135 -3.6458333333401E-1
196 136 8.133928571354102E-1
196 137 4.703979311232901E-1
196 194 1.6157928652714348
196 195 -5.100784949099902
196 196 2.1735249543321387E1
196 197 -9.104225002711014E-2
196 198 -3.7294845887313477E-1
196 199 5.781956116160727E-1
196 200 -7.510979112627026E-1
196 201 1.5734723075309631
196 211 -1.9118872505571165
196 212 2.5847490302744074
196 213 -1.9940303748987667E1
196 214 9.559436252791675E-1
196 215 -1.0189832466726534E-1
196 216 -1.2117938596843105
196 217 8.593742546252947E-1
196 218 1.7819937281689422
196 219 -2.4451383345241826
197 163 -1.5213723759368845
197 164 4.67229636103923E-2
197 165 -4.994893754732836E-1
197 171 -1.2709099623843287E-1
197 172 -4.530743212019811E-1
197 173 1.4984681264182755
197 177 -1.5502598858265442
197 178 -6.587480483377077E-1
197 179 2.3082226908646505E-1
197 194 -3.7518396662070286E-1
197 195 -1.5127027151896835E-1
197 196 -9.104225002711014E-2
197 197 9.834554069391952
197 198 -4.958476271993665E-1
197 199 1.4707637236114262
197 214 -5.353596348131079
197 215 6.796114818031709E-1
197 216 -2.247702189628071
197 217 -9.070504966383093E-1
197 218 1.0326058228444601
197 219 -3.618203039877015E-1
198 163 -3.907770363879078E-1
198 164 5.597638446531408E-2
198 165 -5.518956493597834E-1
198 171 -7.447409878674291E-1
198 172 -1.4795935242753663E-1
198 173 9.116393290311874E-1
198 177 -6.587480483377075E-1
198 178 -4.3010408050299125
198 179 1.2326516832881933
198 194 1.4039639514647975E-1
198 195 5.176384409164507E-1
198 196 -3.7294845887313477E-1
198 197 -4.958476271993665E-1
198 198 1.079849306358523E1
198 199 -4.306655217965393
198 214 1.117111481801471
198 215 -5.3222938138474145
198 216 2.799207673105173
198 217 1.03260582284446
198 218 -1.6008139176621317
198 219 2.880006407737578E-1
199 163 7.135562506679388E-2
199 164 -3.994740909066453E-1
199 165 2.83429817606072E-1
199 171 1.4984681264182758
199 172 1.6759170998607048E-1
199 173 -2.1849289736940065
199 177 5.949912691926713E-1
199 178 2.129207423547971
199 179 -2.3009869629607023
199 194 -4.552112501333164E-1
199 195 -5.254565800877958E-1
199 196 5.781956116160727E-1
199 197 1.4707637236114262
199 198 -4.306655217965393
199 199 1.3937744150086921E1
199 214 -2.2477021896280713
199 215 1.8319457683469986
199 216 -1.058318864567999E1
199 217 -9.326653045277786E-1
199 218 1.1028409870787947
199 219 2.6973500302563097E-1
200 75 -7.168768276687574E-1
200 100 -3.949361443882695
200 101 2.11420747923946
200 102 1.0693784871729202
200 109 -8.690213487853032E-1
200 134 -1.1254829607376988
200 135 -1.5058501167615237
200 136 3.3043856753338496E-1
200 137 -1.1373190012601528
200 138 3.538935940696786E-1
200 139 1.7202350727980886E-1
200 140 1.572718282313488
200 147 -8.417272564640475
200 148 1.4474442898846778
200 149 8.024392932706281E-1
200 155 1.8081468627417907
200 156 1.0598281317386542
200 157 -2.0463900912215798
200 158 -6.850899136082978
200 159 -1.6527151876621535
200 160 -3.212859314001682
200 194 -5.400637350647182E-2
200 195 4.014957753953743E-1
200 196 -7.510979112627026E-1
200 200 3.502065420375546E1
200 201 -1.1445742636608451
200 202 -1.7965095080869267
200 203 -1.5974877939291745
200 211 -5.437556313869836
200 212 -3.421958198510481E-1
200 213 7.409465796685591E-1
200 217 -1.1829776882568371E1
200 218 1.1728422784913377
200 219 3.065965395340845E-1
200 223 2.067559191175651
200 224 1.412630690842874
200 225 1.8703547073082114
200 229 -1.338627256849687
200 230 2.052281654874015
201 75 -1.7965095080869253
201 100 2.114207479239463
201 101 -9.044189319345701
201 102 -2.8690428917593254
201 109 -1.3386272568496862
201 134 -1.5058501167615232
201 135 -1.263225474508289
201 136 6.792616672405514E-1
201 137 2.5464901417151724
201 138 1.7202350727980895E-1
201 139 6.993013127997473E-1
201 140 -7.508398210258121E-1
201 147 1.4474442898846767
201 148 -3.8831125995417217
201 149 8.952851393783709E-2
201 155 1.0598281317386546
201 156 2.5572720163467113
201 157 2.22876987446525
201 158 -1.6527151876621544
201 159 -5.141398737700072
201 160 -2.1432944182981526
201 194 4.014957753953742E-1
201 195 -8.601626538601255E-1
201 196 1.5734723075309631
201 200 -1.1445742636608451
201 201 3.2743537679679505E1
201 202 -7.193031796597713E-1
201 203 -5.578113559303253E-1
201 211 -3.421958198510477E-1
201 212 -1.1212002813215765E1
201 213 -9.206998869217404E-1
201 217 1.1728422784913373
201 218 -4.003754629683751
201 219 3.158023010579061E-2
201 223 1.4126306908428734
201 224 2.0843885688145662
201 225 -2.4388404827833208
201 229 -1.957350170125339
201 230 2.5314261217231127
202 1 -2.168525390033863
202 2 1.0993859301684683
202 26 -2.9678679111190585
202 75 1.035062784273845E-2
202 94 1.3414382982393784
202 95 -2.5846574452430193
202 96 -4.062609548216286E-1
202 100 6.362171332482189E-1
202 101 -1.0451920147436216
202 102 1.3485988616913525E-1
202 109 -8.17706894113633E-17
202 137 -3.2648470811918906E-2
202 177 1.3370841904209905
202 178 -1.7981885429490316
202 179 -6.390188114892911E-1
202 200 -1.7965095080869267
202 201 -7.193031796597713E-1
202 202 2.176357945948066E1
202 203 2.4737856073885385
202 217 6.399446483694623E-1
202 218 -6.999359772828505
202 219 -2.630103186603301
202 229 -5.649010592937651
202 230 -1.6536691501580395E-15
203 1 1.322879728194689
203 2 -1.314922314096268
203 26 1.9394860700539849
203 75 -2.3071620945885885
203 94 -3.941790445401866E-1
203 95 4.797433848398034E-1
203 96 3.0045120581347884E-1
203 100 -4.248240725231619E-1
203 101 2.881715211606925E-1
203 102 -9.088754586621578E-1
203 109 5.861269550390231E-16
203 137 3.8945396756019116E-2
203 177 3.042392359086294
203 178 -9.998602660323159E-1
203 179 -4.280547860761595
203 200 -1.5974877939291745
203 201 -5.578113559303253E-1
203 202 2.4737856073885385
203 203 2.5631282262280408E1
203 217 3.5838091830012375E-1
203 218 -3.6235149614803754
203 219 -5.343806748985758
203 229 -6.428030412157033E-16
203 230 -1.4122526482344124E1
204 3 -2.1709331843960893
204 4 -1.1011899144419266
204 69 1.3375304395748842
204 70 -2.5747936038734562
204 71 4.0337376068880415E-1
204 109 3.9228965326720894E-17
204 125 -1.79719183224229
204 126 -7.190425061094978E-1
204 127 3.213133095416654E-2
204 128 1.2747680306728834E-2
204 130 6.401582285914871E-1
204 161 -1.0535038391260565
204 162 -1.3368673873347847E-1
204 167 -2.966539650691854
204 185 1.3375304395642196
204 186 -1.7979211719953274
204 187 6.390188114892914E-1
204 204 2.1764436907407497E1
204 205 -2.469750436560158
204 220 6.401582286010604E-1
204 221 -7.000817897438813
204 222 2.630103186603302
204 229 -5.651818238172491
204 230 -1.843358148803175E-16
205 3 -1.3287390182963912
205 4 -1.321389989311587
205 69 3.969414461935364E-1
205 70 -4.824572391959994E-1
205 71 3.087471161371321E-1
205 109 -7.531425579989922E-16
205 125 1.5977434372738548
205 126 5.571208762959443E-1
205 127 3.898839457382404E-2
205 128 2.310259211214702
205 130 4.245682010007177E-1
205 161 -2.878650726081784E-1
205 162 -9.149600692942961E-1
205 167 -1.9404233554443004
205 185 -3.042392359086289
205 186 9.998602660323171E-1
205 187 -4.279807703095194
205 204 -2.469750436560158
205 205 2.564136333621727E1
205 220 -3.5838091830013E-1
205 221 3.6235149614803754
205 222 -5.343395489795921
205 229 -3.5604722373088E-17
205 230 -1.4129545595431228E1
206 112 3.028419961717524E-1
206 113 4.765916755647527E-1
206 114 4.8790959821201363E-1
206 125 1.4258660099280829
206 126 -4.724176960905401
206 127 -1.069790675416875
206 129 -1.2128825894959809E-1
206 131 6.246639775928962E-1
206 132 -8.897912598934984E-1
206 133 -7.338958373984339E-1
206 206 1.0002030631700734E1
206 207 3.6203387410238337
206 208 -2.686094744822954E-1
206 209 5.06377229067671E-1
206 210 3.279485434323121E-1
206 220 -1.6314151871591465
206 221 -3.3251343323110696
206 222 -5.671379304954457E-1
206 223 -3.32059063101691E-1
206 224 -2.045896983223188
206 225 -2.065372439357405
207 112 2.4277864583124156E-1
207 113 3.852645089278375E-1
207 114 9.024027380107384E-1
207 125 7.082683106484328E-1
207 126 -1.958949220864528
207 127 -2.016503196338303
207 129 -1.7521397342229345E-1
207 131 1.371534712707151
207 132 -7.304762311602897E-2
207 133 -2.9789741483346512
207 206 3.6203387410238337
207 207 9.996955345832001
207 208 -6.079164161034465E-1
207 209 5.562588745975604E-1
207 210 -5.276001977154582E-3
207 220 -8.10370448927164E-1
207 221 -1.3409474543024922
207 222 -1.1849374866003153
207 223 -7.290808307339207E-1
207 224 -1.1889178262661821
207 225 -4.713667250592315
208 129 -1.0790007522530054
208 168 -1.916199916520272
208 169 4.8323531606019876E-2
208 170 -5.313710687528885E-1
208 185 -4.611169027454423E-1
208 186 -1.0219717353453575
208 187 -3.76463568706238E-1
208 206 -2.686094744822954E-1
208 207 -6.079164161034465E-1
208 208 1.0966631961379985E1
208 209 -2.7860851433960987E-1
208 210 1.0830199146356534
208 220 -3.804608280840904
208 221 1.6019690189033757
208 222 5.901170775622222E-1
208 223 9.12779831664076E-1
208 224 5.609337639969282E-1
208 225 1.0885328038565025
208 226 -4.618485940684435
208 227 -6.420365903390609E-1
208 228 -1.245918742491805
209 129 2.4930081463346732E-1
209 168 -4.041637132923131E-1
209 169 -2.848166140266378E-1
209 170 2.3185723159889798E-1
209 185 -1.021971735345357
209 186 -2.6054344392426505
209 187 -8.655676943125296E-1
209 206 5.06377229067671E-1
209 207 5.562588745975604E-1
209 208 -2.7860851433960987E-1
209 209 1.3480462337356277E1
209 210 4.538738311752578
209 220 1.6019690189033735
209 221 -7.234463821525213
209 222 -8.63414967155062E-1
209 223 1.013421008895261
209 224 1.9946220837681636
209 225 -3.1725202773502476E-1
209 226 -1.1599468794548222
209 227 -5.856746775397611
209 228 -3.2806197287464194
210 129 -2.4374741599723893E-1
210 168 -1.1022160692929663
210 169 4.377392445737762E-1
210 170 -5.636372440365095E-1
210 185 -7.406325688124454E-1
210 186 -1.7621234345723071
210 187 -8.330866152237195E-1
210 206 3.279485434323121E-1
210 207 -5.276001977154582E-3
210 208 1.0830199146356534
210 209 4.538738311752578
210 210 1.364610518851617E1
210 220 1.160962078102299
210 221 -1.6782553134600982
210 222 -3.221535447462367
210 223 1.0885328038565025
210 224 2.9170630559513405E-1
210 225 6.103049213606965E-1
210 226 -1.2459187424918041
210 227 -2.1557536573213945
210 228 -9.632874801177115
211 121 -1.1280935850589155
211 134 -3.498112835206785
211 135 -3.119865732587144E-1
211 136 1.9380300983331216
211 137 7.409465796685587E-1
211 150 -4.6692229698961674E-1
211 151 -8.992460057236014E-1
211 158 8.549433547574983E-1
211 159 2.3616381399869044
211 160 -7.832954492784332E-1
211 194 -9.147553038528915
211 195 1.0153963951422815
211 196 -1.9118872505571165
211 200 -5.437556313869836
211 201 -3.421958198510477E-1
211 211 2.442010044435837E1
211 212 7.97684307915703E-1
211 213 -4.941586726101334E-1
211 214 -1.265030312000542
211 215 6.955082385770286E-1
211 216 4.6963407942079316E-2
211 217 -3.6046207207025893E-1
211 218 -1.9798283387477467
211 219 -6.124150402827579E-2
211 223 -5.09940693044992
211 224 -1.3369703440408074
211 225 1.6527363755891158
212 121 -5.499698758527249E-1
212 134 2.713467600743582E-1
212 135 -1.2139213427288837
212 136 -2.4579028617207754E-1
212 137 -9.206998869217409E-1
212 150 -2.504896281726962E-1
212 151 6.126985505873657E-1
212 158 2.361638139986904
212 159 -3.78749009358071E-1
212 160 1.5980396322433417
212 194 7.237297284768338E-1
212 195 -9.667153950161572
212 196 2.5847490302744074
212 200 -3.421958198510481E-1
212 201 -1.1212002813215765E1
212 211 7.97684307915703E-1
212 212 2.9349589810441323E1
212 213 -5.495055439865507
212 214 4.6751861026124664E-2
212 215 8.950972937868E-1
212 216 -4.427169053336682E-1
212 217 -1.979828338747747
212 218 -1.0999510053579455
212 219 -5.511885612320596E-1
212 223 -1.6286370107084323
212 224 -7.2856075339932564
212 225 4.022632292860029
213 121 -3.6214587082762195E-1
213 134 1.9380300983331211
213 135 3.494478090636756E-1
213 136 -3.0367466701667123
213 137 -6.453853145922091
213 150 -1.1280935850589158
213 151 -1.2108180901351298
213 158 -7.832954492784336E-1
213 159 1.5980396322433417
213 160 8.291699495105166E-1
213 194 -1.9118872505571158
213 195 3.6264156969367205
213 196 -1.9940303748987667E1
213 200 7.409465796685591E-1
213 201 -9.206998869217404E-1
213 211 -4.941586726101334E-1
213 212 -5.495055439865507
213 213 3.609627714260908E1
213 214 4.6963407942079455E-2
213 215 -3.77106786287017E-1
213 216 7.419031577839371E-1
213 217 -6.1241504028275884E-2
213 218 -5.511885612320597E-1
213 219 8.282209381846325E-1
213 223 1.6527363755891162
213 224 2.9809656261977153
213 225 -8.702521752184083
214 171 -2.497870164349452
214 172 6.284324531864712E-1
214 173 2.5000386715036943E-1
214 177 1.5774445377598745
214 178 -2.0524004703016745
214 179 3.1323788553793225E-1
214 194 1.0099822559357356E-1
214 195 -5.076981975714643E-1
214 196 9.559436252791675E-1
214 197 -5.353596348131079
214 198 1.117111481801471
214 199 -2.2477021896280713
214 211 -1.265030312000542
214 212 4.6751861026124664E-2
214 213 4.6963407942079455E-2
214 214 2.4125946101482974E1
214 215 -3.684450076248903
214 216 2.448765598346089
214 217 -8.463548621226568
214 218 3.217194619081053
214 219 -4.910090669082915E-1
214 223 -1.7459342248414815
214 224 1.3631152464324905
214 225 -1.2379306262022838
214 226 -6.478409194287298
214 227 -1.2805691740556718E-1
214 228 -3.82725015169908E-2
215 171 -8.574696858186237E-2
215 172 6.752765247961592E-1
215 173 -7.27311437536299E-1
215 177 -2.052400470301675
215 178 -4.572824673330977E-3
215 179 -7.895055373836838E-1
215 194 -3.618648642386474E-1
215 195 3.6079868141006727E-1
215 196 -1.0189832466726534E-1
215 197 6.796114818031709E-1
215 198 -5.3222938138474145
215 199 1.8319457683469986
215 211 6.955082385770286E-1
215 212 8.950972937868E-1
215 213 -3.77106786287017E-1
215 214 -3.684450076248903
215 215 3.235394722886515E1
215 216 -8.08866379455673
215 217 3.2171946190810545
215 218 -1.4969983444881722E1
215 219 1.23757181084262
215 223 1.931461334868008
215 224 -1.950350753884875
215 225 1.4654346216121628
215 226 -3.3931329495817236E-1
215 227 -1.203791889157084E1
215 228 5.549533679629214
216 171 2.500038671503694E-1
216 172 -7.135911994411482E-1
216 173 8.343877297452327E-1
216 177 3.1323788553793197E-1
216 178 -7.895055373836833E-1
216 179 1.861305926068587
216 194 9.559436252791672E-1
216 195 5.677445324720068E-1
216 196 -1.2117938596843105
216 197 -2.247702189628071
216 198 2.799207673105173
216 199 -1.058318864567999E1
216 211 4.6963407942079316E-2
216 212 -4.427169053336682E-1
216 213 7.419031577839371E-1
216 214 2.448765598346089
216 215 -8.08866379455673
216 216 3.0621778583888787E1
216 217 -4.910090669082917E-1
216 218 1.2375718108426201
216 219 -8.908509214564104
216 223 -1.2379306262022838
216 224 7.820715263777396E-1
216 225 -2.0467765516448555
216 226 -3.8272501516990964E-2
216 227 4.64788189391769
216 228 -1.130910712591328E1
217 75 -2.8248131292206615
217 109 4.385777008063785E-2
217 137 1.139929872861328
217 177 -1.0756254255467972E1
217 178 -2.559646694375451
217 179 3.988563948196545E-1
217 194 -1.8451372538982544
217 195 -4.5937437388895364E-1
217 196 8.593742546252947E-1
217 197 -9.070504966383093E-1
217 198 1.03260582284446
217 199 -9.326653045277786E-1
217 200 -1.1829776882568371E1
217 201 1.1728422784913373
217 202 6.399446483694623E-1
217 203 3.5838091830012375E-1
217 211 -3.6046207207025893E-1
217 212 -1.979828338747747
217 213 -6.1241504028275884E-2
217 214 -8.463548621226568
217 215 3.2171946190810545
217 216 -4.910090669082917E-1
217 217 3.67323611798821E1
217 218 -9.764092277317327E-2
217 219 -1.0766890842196446
217 223 -1.2703713150807485
217 224 -1.5137983320100232
217 225 -3.3022564133084273
217 226 1.481195076208406
217 227 9.946084607938085E-2
217 228 3.682514845368952
217 229 4.4824044692965376E-1
217 230 -5.751949129829346E-1
218 75 6.399446483694626E-1
218 109 4.4824044692965337E-1
218 137 -2.0651500798569908E-1
218 177 -2.5596466943754503
218 178 -5.5965899045413545
218 179 8.694495605854313E-1
218 194 -4.593743738889541E-1
218 195 -3.7831611282718427
218 196 1.7819937281689422
218 197 1.0326058228444601
218 198 -1.6008139176621317
218 199 1.1028409870787947
218 200 1.1728422784913377
218 201 -4.003754629683751
218 202 -6.999359772828505
218 203 -3.6235149614803754
218 211 -1.9798283387477467
218 212 -1.0999510053579455
218 213 -5.511885612320597E-1
218 214 3.217194619081053
218 215 -1.4969983444881722E1
218 216 1.2375718108426201
218 217 -9.764092277317327E-2
218 218 3.522046973674316E1
218 219 -7.050034740404406E-1
218 223 -1.513798332010023
218 224 3.354845556346777E-1
218 225 -2.2344623041910574
218 226 9.946084607938119E-2
218 227 4.509097071282259
218 228 -1.444987370076559
218 229 -2.0114375604328485
218 230 3.7738155923304033
219 75 2.0420258442376282E-1
219 109 -5.751949129829343E-1
219 137 -4.467677034047547
219 177 1.2321897281468985
219 178 1.2265924177289493
219 179 -4.421467658780284
219 194 4.4270758796157833E-1
219 195 1.0081842043618972
219 196 -2.4451383345241826
219 197 -3.618203039877015E-1
219 198 2.880006407737578E-1
219 199 2.6973500302563097E-1
219 200 3.065965395340845E-1
219 201 3.158023010579061E-2
219 202 -2.630103186603301
219 203 -5.343806748985758
219 211 -6.124150402827579E-2
219 212 -5.511885612320596E-1
219 213 8.282209381846325E-1
219 214 -4.910090669082915E-1
219 215 1.23757181084262
219 216 -8.908509214564104
219 217 -1.0766890842196446
219 218 -7.050034740404406E-1
219 219 2.9482917636127603E1
219 223 -3.3022564133084265
219 224 -2.234462304191058
219 225 -2.370154935008758
219 226 3.6825148453689516
219 227 -1.4449873700765585
219 228 -8.320111675937507E-1
219 229 3.7738155923304033
219 230 -1.7921084838334815
220 109 -2.3055387576800543E-1
220 125 -1.0190685239280821E1
220 126 7.959137336346815E-1
220 127 -1.1382080996912105
220 128 -2.824878007335028
220 129 -1.5216449076935297
220 185 -7.448719845866831
220 186 -2.5273245448940824
220 187 -4.6634412300456596E-1
220 204 6.401582286010604E-1
220 205 -3.5838091830013E-1
220 206 -1.6314151871591465
220 207 -8.10370448927164E-1
220 208 -3.804608280840904
220 209 1.6019690189033735
220 210 1.160962078102299
220 220 3.047056824208783E1
220 221 9.593401992648188E-1
220 222 2.142024632675116
220 223 -1.7425226869580075
220 224 -1.547345895118581
220 225 3.1739162011977387
220 226 -2.7069553983447
220 227 1.493196149819655
220 228 -3.9481904377235937
220 229 2.1550829694822066E-1
220 230 2.4459111567151048E-1
221 109 2.1550829694822077E-1
221 125 7.959137336346815E-1
221 126 -3.090294911791677
221 127 2.2201138893621047E-1
221 128 6.401582286010594E-1
221 129 -1.6314151871591471
221 185 -2.527324544894082
221 186 -3.3955834116312054
221 187 -6.993490153850087E-1
221 204 -7.000817897438813
221 205 3.6235149614803754
221 206 -3.3251343323110696
221 207 -1.3409474543024922
221 208 1.6019690189033757
221 209 -7.234463821525213
221 210 -1.6782553134600982
221 220 9.593401992648188E-1
221 221 2.8239868636517535E1
221 222 -7.38035977038032E-1
221 223 -1.547345895118581
221 224 -3.2552587825408867
221 225 2.5295657962948663
221 226 1.4931961498196542
221 227 2.1743271264506325E-1
221 228 1.4569184059730056
221 229 -1.1557481919237402
221 230 -3.3754227924988265
222 109 2.445911156715104E-1
222 125 -3.048747663639679E-1
222 126 -1.6083849155279384E-2
222 127 -3.4108293843691135
222 128 -2.0420258442376707E-1
222 129 -3.9370378226344754E-1
222 185 -1.2996774563318103
222 186 -1.056491872528527
222 187 -2.1671864775079204
222 204 2.630103186603302
222 205 -5.343395489795921
222 206 -5.671379304954457E-1
222 207 -1.1849374866003153
222 208 5.901170775622222E-1
222 209 -8.63414967155062E-1
222 210 -3.221535447462367
222 220 2.142024632675116
222 221 -7.38035977038032E-1
222 222 2.659539828947402E1
222 223 3.1739162011977378
222 224 2.529565796294865
222 225 -3.63736475094378
222 226 -3.9481904377235937
222 227 1.456918405973006
222 228 -5.19978875822965
222 229 -3.375422792498827
222 230 -2.4303604945649604
223 109 6.936058568069292E-2
223 121 4.324391766385993E-1
223 125 -1.1893445030464866
223 126 2.3448336326119996
223 127 -3.1067725431394275
223 129 -1.275615822442349
223 131 -6.424618899239425
223 132 -1.8326258575014982
223 133 -2.2184598561469437
223 137 1.8703547073082114
223 150 -1.4622276308174307
223 151 -1.643714941918737
223 158 -7.419319766961373
223 159 2.670405006614502
223 160 8.555068405536124E-1
223 200 2.067559191175651
223 201 1.4126306908428734
223 206 -3.32059063101691E-1
223 207 -7.290808307339207E-1
223 208 9.12779831664076E-1
223 209 1.013421008895261
223 210 1.0885328038565025
223 211 -5.09940693044992
223 212 -1.6286370107084323
223 213 1.6527363755891162
223 214 -1.7459342248414815
223 215 1.931461334868008
223 216 -1.2379306262022838
223 217 -1.2703713150807485
223 218 -1.513798332010023
223 219 -3.3022564133084265
223 220 -1.7425226869580075
223 221 -1.547345895118581
223 222 3.1739162011977378
223 223 3.895131209260354E1
223 224 3.418680564188697
223 225 1.4759365407039695
223 226 -1.4371649921286753E1
223 227 -2.945628896452811
223 228 -1.900958373769055E-1
223 229 -1.3476222412095658
223 230 2.3517346106015644E-1
224 109 -1.347622241209565
224 121 -1.1105238048008714E-1
224 125 2.3448336326119996
224 126 -8.09948354922886E-1
224 127 2.602240076412785
224 129 -5.67481574893518E-2
224 131 -1.249292524167906
224 132 -4.268655970955334
224 133 -2.6405222498631303E-1
224 137 -2.4388404827833208
224 150 -8.981925141972257E-1
224 151 -3.742993431584719E-1
224 158 2.6704050066145006
224 159 -1.766102695287366
224 160 -8.29256389414104E-2
224 200 1.412630690842874
224 201 2.0843885688145662
224 206 -2.045896983223188
224 207 -1.1889178262661821
224 208 5.609337639969282E-1
224 209 1.9946220837681636
224 210 2.9170630559513405E-1
224 211 -1.3369703440408074
224 212 -7.2856075339932564
224 213 2.9809656261977153
224 214 1.3631152464324905
224 215 -1.950350753884875
224 216 7.820715263777396E-1
224 217 -1.5137983320100232
224 218 3.354845556346777E-1
224 219 -2.234462304191058
224 220 -1.547345895118581
224 221 -3.2552587825408867
224 222 2.529565796294865
224 223 3.418680564188697
224 224 3.0904675571428022E1
224 225 -2.056472725363045
224 226 -3.8206288964540285
224 227 -6.71882526709645
224 228 -6.727069574537679E-1
224 229 -6.844225094582728
224 230 -1.3711879041305497E-1
225 109 2.3517346106015619E-1
225 121 6.32874174936591E-1
225 125 -3.106772543139428
225 126 2.6022400764127855
225 127 -3.776022748817993
225 129 -7.290808307339208E-1
225 131 -2.2184598561469433
225 132 -8.592903202220662E-1
225 133 -5.343176958737672
225 137 -1.4946994189985336
225 150 4.324391766385984E-1
225 151 9.575937547186181E-2
225 158 8.555068405536138E-1
225 159 -8.292563894140995E-2
225 160 -3.9582710682272493E-1
225 200 1.8703547073082114
225 201 -2.4388404827833208
225 206 -2.065372439357405
225 207 -4.713667250592315
225 208 1.0885328038565025
225 209 -3.1725202773502476E-1
225 210 6.103049213606965E-1
225 211 1.6527363755891158
225 212 4.022632292860029
225 213 -8.702521752184083
225 214 -1.2379306262022838
225 215 1.4654346216121628
225 216 -2.0467765516448555
225 217 -3.3022564133084273
225 218 -2.2344623041910574
225 219 -2.370154935008758
225 220 3.1739162011977387
225 221 2.5295657962948663
225 222 -3.63736475094378
225 223 1.4759365407039695
225 224 -2.056472725363045
225 225 3.5004589223248196E1
225 226 -1.90095837376905E-1
225 227 -5.23897433645321E-1
225 228 -4.860719063179598
225 229 -1.3711879041305536E-1
225 230 1.0931622173848132
226 109 2.798141082581788
226 168 -8.836904570899027E-1
226 169 7.545157897892778E-1
226 170 1.3851140685842231
226 171 -1.4947589655909653E1
226 172 4.375130455330513E-1
226 173 -2.4547266514569066
226 177 -1.1225022882058666
226 178 -2.6348134406250745
226 179 -3.2068124642114144
226 185 -7.682076169723038
226 186 -4.704836624796755
226 187 3.046981953198736
226 208 -4.618485940684435
226 209 -1.1599468794548222
226 210 -1.2459187424918041
226 214 -6.478409194287298
226 215 -3.3931329495817236E-1
226 216 -3.8272501516990964E-2
226 217 1.481195076208406
226 218 9.946084607938119E-2
226 219 3.6825148453689516
226 220 -2.7069553983447
226 221 1.4931961498196542
226 222 -3.9481904377235937
226 223 -1.4371649921286753E1
226 224 -3.8206288964540285
226 225 -1.90095837376905E-1
226 226 4.8532022866741464E1
226 227 6.466599337250454
226 228 2.791912819573032
226 229 3.408253967817034
226 230 1.774929480526723E-1
227 109 3.4082539678170343
227 168 2.5349123120910477E-2
227 169 1.1621991972147294
227 170 5.394293729124657E-1
227 171 -4.374869544681669E-1
227 172 -8.422877593686701
227 173 -2.2458525063775048E-1
227 177 -2.6348134406250745
227 178 -2.3080360737347325
227 179 -2.7472233459917885
227 185 -4.704836624796755
227 186 -9.719168035582927
227 187 3.1500707642428294
227 208 -6.420365903390609E-1
227 209 -5.856746775397611
227 210 -2.1557536573213945
227 214 -1.2805691740556718E-1
227 215 -1.203791889157084E1
227 216 4.64788189391769
227 217 9.946084607938085E-2
227 218 4.509097071282259
227 219 -1.4449873700765585
227 220 1.493196149819655
227 221 2.1743271264506325E-1
227 222 1.456918405973006
227 223 -2.945628896452811
227 224 -6.71882526709645
227 225 -5.23897433645321E-1
227 226 6.466599337250454
227 227 4.023951900804208E1
227 228 -2.476627556143582
227 229 -1.064675352114869
227 230 -2.212258232295976E-1
228 109 1.7749294805267254E-1
228 168 1.3851140685842223
228 169 1.6740556338929852E-1
228 170 5.579719186281069E-1
228 171 -2.454726651456906
228 172 5.194623684073668E-1
228 173 -8.511287697036593
228 177 -3.206812464211414
228 178 -2.7472233459917885
228 179 -2.022199093101888
228 185 3.046981953198736
228 186 3.150070764242829
228 187 -5.594613662795315
228 208 -1.245918742491805
228 209 -3.2806197287464194
228 210 -9.632874801177115
228 214 -3.82725015169908E-2
228 215 5.549533679629214
228 216 -1.130910712591328E1
228 217 3.682514845368952
228 218 -1.444987370076559
228 219 -8.320111675937507E-1
228 220 -3.9481904377235937
228 221 1.4569184059730056
228 222 -5.19978875822965
228 223 -1.900958373769055E-1
228 224 -6.727069574537679E-1
228 225 -4.860719063179598
228 226 2.791912819573032
228 227 -2.476627556143582
228 228 4.359417266919811E1
228 229 -2.2122582322959755E-1
228 230 3.8104567812009833
229 1 -1.5403530064858428
229 2 -2.796678127191387
229 3 -9.800453313871069E-1
229 4 1.7893368057944499
229 24 -4.657548003175192
229 25 1.0684084587212637
229 26 -1.2520374205787395
229 51 -5.505895124263868
229 55 1.9519014037745008
229 56 1.1949941141008606
229 57 1.6581110229751412
229 69 1.620021224785879E-1
229 70 -6.67166633482134
229 71 5.061688175910516
229 74 -1.6764297988718122
229 75 -9.716996135737716E-17
229 85 6.886755867499912E-3
229 86 4.161359389105349
229 87 -6.608258324600984E-1
229 94 1.1569999642330513
229 95 -4.765237784605033
229 96 -4.543785779661574
229 100 3.817371779480387E-1
229 101 -3.785692210344556
229 102 7.395480284597631E-1
229 103 3.6801086338341378
229 104 -6.797853908052561
229 105 -9.678251812723997E-1
229 109 9.693379671180363E-1
229 110 4.6882837716406817E-1
229 111 -1.3617612023074539E1
229 125 -1.9768432496899804
229 126 -1.4052002674507789
229 127 -2.7650332009201604
229 128 2.6272755139380662E-17
229 130 3.032583521389341E-1
229 137 2.531426121723113
229 141 -4.0056898370017757E-1
229 142 1.4895014643860671
229 143 -8.952178058796179E-2
229 155 -8.394886832555424E-1
229 156 -9.400276679738388
229 157 -3.7048917879158666E-1
229 158 -3.5947883717553077
229 159 1.8138060302708137
229 160 4.837319296383699E-1
229 161 -3.99972809958052
229 162 -7.387865204205463E-1
229 167 1.8532684874085028
229 177 2.0109703448424914
229 178 4.79691239727823E-1
229 179 8.383378233778309E-1
229 185 1.5118513164141527
229 186 3.289007471606258E-1
229 187 -7.859224700570804E-1
229 200 -1.338627256849687
229 201 -1.957350170125339
229 202 -5.649010592937651
229 203 -6.428030412157033E-16
229 204 -5.651818238172491
229 205 -3.5604722373088E-17
229 217 4.4824044692965376E-1
229 218 -2.0114375604328485
229 219 3.7738155923304033
229 220 2.1550829694822066E-1
229 221 -1.1557481919237402
229 222 -3.375422792498827
229 223 -1.3476222412095658
229 224 -6.844225094582728
229 225 -1.3711879041305536E-1
229 226 3.408253967817034
229 227 -1.064675352114869
229 228 -2.2122582322959755E-1
229 229 7.021394358063992E1
229 230 1.184661317445235
230 1 -3.442323157442923
230 2 -3.132676200672294
230 3 3.0056045025557685
230 4 -1.1136198456801942
230 24 4.2750245395571446E-1
230 25 -1.3455858963535965
230 26 -2.7966781271913868
230 51 1.0684084587212634
230 55 -1.728620790485004
230 56 1.6581110229751415
230 57 4.433305257193263
230 69 -9.298349896812326E-2
230 70 5.061688175910515
230 71 -1.1343948019575244E1
230 74 -3.2279988635531525
230 75 1.250630836258709E-15
230 85 2.100751908012319
230 86 -6.608258324600977E-1
230 87 1.0571903570793963
230 94 1.6422076815897055
230 95 -4.543785779661572
230 96 -7.761264794065061
230 100 2.2499022923260936
230 101 7.395480284597624E-1
230 102 -6.765853269751425
230 103 2.139165896892164
230 104 -9.678251812723999E-1
230 105 -6.129917814079481
230 109 -6.368037616552188E-1
230 110 -4.2206675594521803E-1
230 111 -1.676429798871811
230 125 -2.4943662117818475
230 126 -2.7650332009201604
230 127 -3.3057810016202254
230 128 -8.761716400808165E-16
230 130 -2.514606293627348
230 137 -3.9655210251232775
230 141 -2.60320719753898
230 142 -8.952178058796169E-2
230 143 -8.646090973446621E-1
230 155 1.2348254825915145E-1
230 156 -3.704891787915868E-1
230 157 -7.643075211966843
230 158 1.1749533040857602E-1
230 159 4.837319296383697E-1
230 160 5.001591411574267
230 161 -7.387865204205464E-1
230 162 -6.802521236448633
230 167 1.7893368057944494
230 177 -4.163666290260242
230 178 8.383378233778305E-1
230 179 1.3853708254434932E-1
230 185 4.158187077029995
230 186 -7.8592247005708E-1
230 187 2.5001249970113992E-2
230 200 2.052281654874015
230 201 2.5314261217231127
230 202 -1.6536691501580395E-15
230 203 -1.4122526482344124E1
230 204 -1.843358148803175E-16
230 205 -1.4129545595431228E1
230 217 -5.751949129829346E-1
230 218 3.7738155923304033
230 219 -1.7921084838334815
230 220 2.4459111567151048E-1
230 221 -3.3754227924988265
230 222 -2.4303604945649604
230 223 2.3517346106015644E-1
230 224 -1.3711879041305497E-1
230 225 1.0931622173848132
230 226 1.774929480526723E-1
230 227 -2.212258232295976E-1
230 228 3.8104567812009833
230 229 1.184661317445235
230 230 8.031766897546068E1
231 231 1.4202613743371488E1
231 232 1.7140382663304843E-1
231 233 4.695143640710058
231 234 7.140445271216104E-1
231 235 4.85870654952019E-1
231 241 -1.1523597794283605E1
231 242 -5.144155606037382E-1
231 243 -3.0963201479005877
231 244 -1.7632279022967963
231 245 -7.13564345815356E-1
231 246 -2.89868001148317
231 247 -1.3187221866601857
231 248 4.2444019717040254E-1
231 249 -4.2422954114183103E-1
231 251 9.616887878106677E-2
231 262 3.4294370706915905E-1
231 270 3.5840496591379256E-1
231 403 8.444072404000741E-1
231 404 -6.300874683266391E-2
231 405 3.718219258558835E-1
231 441 -3.914970709606647E-1
232 231 1.7140382663304843E-1
232 232 1.3677112686842227E1
232 233 1.2943814897140915
232 234 -9.13311212170245E-2
232 235 -4.538924444586828E-1
232 241 -3.269155606056472E-1
232 242 -1.1369445594300771E1
232 243 -2.0425160000616636
232 244 2.1794370707043176E-1
232 245 1.3616773333744445
232 246 3.584049659137931E-1
232 247 4.4327829471678243E-1
232 248 -3.914970709606651E-1
232 249 -4.8420689026892916E-1
232 251 6.248799039713113E-2
232 262 -1.8659960356186867
232 270 -1.7856583732270659
232 403 6.199125316606363E-2
232 404 4.2772008717599586E-1
232 405 -1.1872178301604236E-1
232 441 8.537792387311751E-1
233 231 4.695143640710058
233 232 1.2943814897140915
233 233 2.973637357142584E1
233 234 4.0890623296100137E-1
233 235 1.7105807193349585
233 241 -2.1290582431484433
233 242 -2.042516000061663
233 243 -2.7166503145735795E1
233 244 3.048327322442368E-2
233 245 -5.503063982390806
233 246 -2.2107717948520746
233 247 -3.4706056999792763
233 248 -1.3145270239029576
233 249 2.6943004532312194
233 251 6.48417777791247E-2
233 262 1.3616773333744436
233 270 9.181654267794855E-1
233 403 5.198239150079921E-1
233 404 -5.936089150787467E-1
233 405 1.9989180841138725
233 441 -1.0029411125067356
234 231 7.140445271216104E-1
234 232 -9.13311212170245E-2
234 233 4.0890623296100137E-1
234 234 1.1709973998924884E1
234 235 4.577801941274049
234 244 -7.824235105994361
234 245 -2.817767811909029
234 246 2.0225717751241742E-1
234 247 -2.0478393376884274E-1
234 251 1.4541775446290442E-1
234 252 5.326052252969606E-1
234 253 1.284607305583873E-1
234 254 4.478018772017619E-1
234 262 -6.238464231404203E-1
234 263 -1.7214514808025683
234 264 4.678848173553146E-1
234 265 -8.628646172279697E-1
234 270 -5.756743419206656E-1
234 271 -3.6131943420589434
234 272 5.49088583901504E-1
234 273 -1.5490936885309714
235 231 4.85870654952019E-1
235 232 -4.538924444586828E-1
235 233 1.7105807193349585
235 234 4.577801941274049
235 235 2.162486398336062E1
235 244 -1.9249106690607989
235 245 -1.7673890215185377E1
235 246 -1.0948944650614774
235 247 2.7422242928499383
235 251 7.067325446589937E-1
235 252 4.450552656461665E-1
235 253 2.719251417464469E-1
235 254 1.2985672559737484
235 262 -1.9034759922313662
235 263 -4.441223628427238E-2
235 264 1.4276069941735232
235 265 -5.718651864356811
235 270 -1.058774137749092
235 271 -2.444510491465686
235 272 1.0098778938601771
235 273 -3.983694171977076
236 236 6.23606750755595E1
236 237 3.7328832666371246
236 238 1.7465538633827947E1
236 239 -1.6045491209788094
236 240 -2.359323890366628E-1
236 241 -4.800045855747248E1
236 242 -1.1858940206594433
236 243 -1.7296908904521153E1
236 244 -8.76847554932385E-1
236 245 -2.899400673561693E-1
236 246 2.4384642428604578E-1
236 247 1.5874440224641664
236 248 -6.070975434719033
236 249 2.0671162989408116
236 250 3.976223626521712E-1
236 255 4.797896650264163E-1
236 262 -6.228498855207146E-1
236 270 1.4748720052300635
236 274 -3.356913348044415E-1
236 374 8.921742947544224E-1
236 383 -1.136215470371853
236 396 -1.6256322956956297
236 397 -2.700110566253146
236 406 2.4217895004246748E-1
236 407 -3.4542740436117897E-1
236 408 4.045435884892013E-1
236 441 -2.867024491308043
236 442 -3.5320220157178133
236 443 -1.222832094994205
236 444 -1.3993729792071705
237 236 3.7328832666371246
237 237 6.1486011817525956E1
237 238 3.9498802744845802
237 239 5.69642781749522E-2
237 240 1.9663486862520299
237 241 -1.2900606873250475
237 242 -4.285015535383253E1
237 243 -4.153589207833687
237 244 -7.478498855194526E-1
237 245 -1.5562026667138866
237 246 1.4748720052300641
237 247 -1.8067880570688304
237 248 -2.867024491308043
237 249 1.4192736043565535
237 250 1.8140439385854545
237 255 -5.1053447957533065
237 262 -9.607704673260291E-1
237 270 3.8790186798691506E-2
237 274 -1.1542361404606398
237 374 1.8672146988952871
237 383 -7.103412510418483E-1
237 396 8.921742947544224E-1
237 397 3.937706723734238E-1
237 406 1.5422251187496638E-1
237 407 -1.4982677927388142
237 408 7.569863737633518E-1
237 441 -5.908229975216937
237 442 -6.958400414771378E-1
237 443 -5.9150121778916835
237 444 -2.7837236181989873
238 236 1.7465538633827947E1
238 237 3.9498802744845802
238 238 1.1520121342111672E2
238 239 4.8085127436791664E-2
238 240 -1.7817948373660608
238 241 -1.8338575571177195E1
238 242 -4.153589207833682
238 243 -1.0048402534581254E2
238 244 -8.107734006842677E-1
238 245 -5.250337206495045E-1
238 246 1.5874440224641688
238 247 7.858017430778035E-1
238 248 2.0671162989408103
238 249 -3.4189424261062773
238 250 -3.918719028923123
238 255 1.9663486862520294
238 262 -1.556202666713888
238 270 -1.8067880570688313
238 274 1.8140439385854554
238 374 3.9377067237342356E-1
238 383 1.1734528344309298
238 396 -2.7001105662531466
238 397 -4.806649670337607E-1
238 406 1.4954645003853984E-1
238 407 7.569863737633498E-1
238 408 1.1908161073945162E-1
238 441 1.4192736043565537
238 442 -6.417238290245846E-1
238 443 -2.7837236181989886
238 444 -5.496916449042687
239 236 -1.6045491209788094
239 237 5.69642781749522E-2
239 238 4.8085127436791664E-2
239 239 6.193206456652936E1
239 240 1.9866839909133933E1
239 244 -4.028547277922661E1
239 245 -1.7249422703755684E1
239 246 -9.078736331864363
239 247 1.1840520426193142
239 250 1.006780194424024
239 255 -1.6881009311987054
239 256 9.813399649605475E-1
239 257 2.143821198797151E-1
239 258 6.57984181696827E-1
239 262 -9.292814871337531E-1
239 263 -1.485364519235321
239 264 -8.935261796177439E-1
239 265 -5.125934986628733E-1
239 270 8.28469607747129E-1
239 271 1.8221134452002028
239 272 1.3175917298854536
239 273 1.272675413670249
239 274 4.2390013507961755E-1
239 275 -1.0572749904113069E1
239 276 2.3842970254613554
239 277 -4.320336334849349
239 374 -1.7146962982780196
239 383 -2.1255457269053415
239 396 4.169004056334054E-1
239 397 -1.9540643317132285
240 236 -2.359323890366628E-1
240 237 1.9663486862520299
240 238 -1.7817948373660608
240 239 1.9866839909133933E1
240 240 9.71429319350594E1
240 244 -1.8291089370411704E1
240 245 -7.421242608806816E1
240 246 1.1840520426193122
240 247 -7.170612435185061
240 250 -4.575083180060123
240 255 7.164119612131149E-1
240 256 9.273343233115785E-1
240 257 9.464602089403403E-1
240 258 8.870876438470804E-1
240 262 -2.3763296240321816
240 263 -1.0334268319909903
240 264 -1.6315508504842502
240 265 -7.768795029530408E-1
240 270 3.3042926567153363E-1
240 271 1.2726754136702474
240 272 5.371738880726832E-2
240 273 2.279643177487937
240 274 -2.219886104827931
240 275 -3.5154854850477766
240 276 2.5144885038444293
240 277 -1.3444164286184238E1
240 374 -3.0008943538435423E-1
240 383 1.7790967194652927
240 396 -1.9540643317132291
240 397 1.6512975734222812
241 231 -1.1523597794283605E1
241 232 -3.269155606056472E-1
241 233 -2.1290582431484433
241 236 -4.800045855747248E1
241 237 -1.2900606873250475
241 238 -1.8338575571177195E1
241 241 6.230711764830157E1
241 242 1.8720369146287004
241 243 2.0098186796907623E1
241 244 1.0113129828818817
241 245 4.8075133477837584E-1
241 246 5.083846956816827E-1
241 247 5.126358218747542E-13
241 248 -3.085035002411185
241 249 -5.676339089091066E-13
241 262 1.0776648147528853E-1
241 270 4.8871639565790165E-1
241 403 -1.7254692099224853
241 404 1.5650437341505963E-1
241 405 1.137269213282675E-1
241 406 -4.640899876239436E-1
241 407 -4.590116624397265E-1
241 408 -5.976606992004787E-1
241 409 9.718352248485673E-1
241 410 -1.5195890896664122E-2
241 411 3.726294605119107E-1
241 441 -5.33840363909865E-1
242 231 -5.144155606037382E-1
242 232 -1.1369445594300771E1
242 233 -2.042516000061663
242 236 -1.1858940206594433
242 237 -4.285015535383253E1
242 238 -4.153589207833682
242 241 1.8720369146287004
242 242 5.690766855162891E1
242 243 5.434446533355311
242 244 -5.890018518968941E-2
242 245 5.835760000170067E-1
242 246 4.887163956579009E-1
242 247 3.814011717697185E-14
242 248 -5.338403639098639E-1
242 249 -4.224580239847909E-14
242 262 2.685427220378509E-1
242 270 9.324513174704816E-1
242 403 2.1900437341442328E-1
242 404 -1.7527815624672851
242 405 1.246578721664783
242 406 -3.5484499577411366E-1
242 407 -7.441032623565939E-1
242 408 -1.4246613961885228
242 409 6.813744243582391E-2
242 410 6.382533573290529E-1
242 411 3.561653490467712E-1
242 441 -2.030430175509119
243 231 -3.0963201479005877
243 232 -2.0425160000616636
243 233 -2.7166503145735795E1
243 236 -1.7296908904521153E1
243 237 -4.153589207833687
243 238 -1.0048402534581254E2
243 241 2.0098186796907623E1
243 242 5.434446533355311
243 243 1.3037951227095706E2
243 244 6.295608585861693E-1
243 245 1.854387344308842
243 246 5.091156936445253E-13
243 247 2.5922716101675163
243 248 -5.675899595487434E-13
243 249 -3.843504336619575
243 262 5.835760000170089E-1
243 270 3.9901113285342634E-14
243 403 -5.55915935807598E-1
243 404 1.2465787216647828
243 405 -5.082418768411995
243 406 -7.682736587240613E-2
243 407 -1.4246613961885228
243 408 -3.451980714268588E-1
243 409 2.9822469860801804E-1
243 410 3.561653490467741E-1
243 411 2.0954784425733477
243 441 -4.3438383994205195E-14
244 231 -1.7632279022967963
244 232 2.1794370707043176E-1
244 233 3.048327322442368E-2
244 234 -7.824235105994361
244 235 -1.9249106690607989
244 236 -8.76847554932385E-1
244 237 -7.478498855194526E-1
244 238 -8.107734006842677E-1
244 239 -4.028547277922661E1
244 240 -1.8291089370411704E1
244 241 1.0113129828818817
244 242 -5.890018518968941E-2
244 243 6.295608585861693E-1
244 244 5.242497924013104E1
244 245 1.9701206368543165E1
244 246 -4.284547615848861
244 247 -8.030628611377168E-13
244 251 -3.7384642314296446E-1
244 255 -1.0126148204662309
244 262 1.8828943637987545
244 263 1.0456468943107593
244 264 1.2846073055837642E-1
244 265 6.655229398030361E-1
244 270 -7.814199007679548E-1
244 271 5.523918409753401E-1
244 272 7.453324136587298E-1
244 273 7.762629780126356E-13
245 231 -7.13564345815356E-1
245 232 1.3616773333744445
245 233 -5.503063982390806
245 234 -2.817767811909029
245 235 -1.7673890215185377E1
245 236 -2.899400673561693E-1
245 237 -1.5562026667138866
245 238 -5.250337206495045E-1
245 239 -1.7249422703755684E1
245 240 -7.421242608806816E1
245 241 4.8075133477837584E-1
245 242 5.835760000170067E-1
245 243 1.854387344308842
245 244 1.9701206368543165E1
245 245 9.617529463035781E1
245 246 -8.013782528876085E-13
245 247 -4.446263407175037
245 251 -1.9034759922313649
245 255 -2.3763296240321803
245 262 3.0749795243449407
245 263 8.887372255147185E-1
245 264 8.157754252410419E-1
245 265 1.5037839235816346
245 270 -2.886507547308276E-14
245 271 7.789022380987573E-13
245 272 2.7527554469017736E-14
245 273 2.827211515220601
246 231 -2.89868001148317
246 232 3.584049659137931E-1
246 233 -2.2107717948520746
246 234 2.0225717751241742E-1
246 235 -1.0948944650614774
246 236 2.4384642428604578E-1
246 237 1.4748720052300641
246 238 1.5874440224641688
246 239 -9.078736331864363
246 240 1.1840520426193122
246 241 5.083846956816827E-1
246 242 4.887163956579009E-1
246 243 5.091156936445253E-13
246 244 -4.284547615848861
246 245 -8.013782528876085E-13
246 246 3.811451720693338E1
246 247 3.0673749843267637
246 248 -9.373815290099987E-1
246 249 -7.791711036399675E-2
246 251 -5.756743419206654E-1
246 255 8.284696077471319E-1
246 262 -7.814199007679556E-1
246 270 1.6156192036928885
246 271 -7.625051555494991
246 272 -2.517167346095232
246 273 -1.5168461152145936
246 275 1.39962143820912
246 276 -1.6717404702692948
246 277 3.0330487106080177
246 288 -1.0481608874758653E1
246 289 1.7324099235785497
246 290 -3.3689098765092296E-1
246 339 4.304217290245132
246 340 1.9255024392175015
246 341 -7.241960019262647E-1
246 361 -1.8191357605604854
246 374 -7.763412019601457E-1
246 378 -2.4494049047736577
246 379 5.543583352044961E-1
246 396 -7.017433409634086
246 397 -3.464761620153137
246 441 -2.825155194640503E-1
247 231 -1.3187221866601857
247 232 4.4327829471678243E-1
247 233 -3.4706056999792763
247 234 -2.0478393376884274E-1
247 235 2.7422242928499383
247 236 1.5874440224641664
247 237 -1.8067880570688304
247 238 7.858017430778035E-1
247 239 1.1840520426193142
247 240 -7.170612435185061
247 241 5.126358218747542E-13
247 242 3.814011717697185E-14
247 243 2.5922716101675163
247 244 -8.030628611377168E-13
247 245 -4.446263407175037
247 246 3.0673749843267637
247 247 3.607913150861804E1
247 248 -3.669139263450028E-2
247 249 -1.3468455981095495
247 251 -5.149238542544967E-1
247 255 3.3042926567153624E-1
247 262 -3.1025518823580094E-14
247 270 3.8635344257778437
247 271 -1.5465742275863203
247 272 -2.7204551343945282
247 273 -9.802384720132022
247 275 3.033048710608016
247 276 1.1832503403715011
247 277 9.864562177659685E-1
247 288 -1.2682272366730554
247 289 6.555516774577075E-1
247 290 -4.052166728925779
247 339 -7.241960019262645E-1
247 340 3.13027791713956
247 341 1.9911988644876568
247 361 -5.664244908150273E-1
247 374 -4.014950874989564
247 378 -3.079631606156624E-1
247 379 2.133359814247659E-1
247 396 -3.464761620153137
247 397 -1.5101541628884968E1
247 441 1.722049038750928E-2
248 231 4.2444019717040254E-1
248 232 -3.914970709606651E-1
248 233 -1.3145270239029576
248 236 -6.070975434719033
248 237 -2.867024491308043
248 238 2.0671162989408103
248 241 -3.085035002411185
248 242 -5.338403639098639E-1
248 243 -5.675899595487434E-13
248 246 -9.373815290099987E-1
248 247 -3.669139263450028E-2
248 248 2.7413138213744137E1
248 249 2.362266784977942
248 270 -2.8251551946405035E-1
248 361 1.3274985873743517
248 362 -1.9984317268477918
248 363 -1.285048456619738
248 374 -7.986039226439436E-1
248 378 -3.2519101801437458
248 379 4.9296653593996254E-1
248 380 -2.2811322879002316
248 396 -6.114997589182867
248 397 -2.737563297187192
248 403 -2.1026656101347947
248 404 1.8186172550053833E-1
248 405 -1.7253950536911573
248 406 -3.414763023560073E-1
248 407 1.6736190809282578
248 408 9.12484619822755E-1
248 409 7.445849365333E-1
248 410 2.4593855991194158E-1
248 411 2.6739013886581324E-13
248 412 -7.169090388617023
248 413 -1.7794188404815976
248 414 -6.188273186465041E-1
248 441 3.852718237234291
248 442 2.7725009770270463
248 443 1.3696957446665725
248 444 1.8832183030008784
249 231 -4.2422954114183103E-1
249 232 -4.8420689026892916E-1
249 233 2.6943004532312194
249 236 2.0671162989408116
249 237 1.4192736043565535
249 238 -3.4189424261062773
249 241 -5.676339089091066E-13
249 242 -4.224580239847909E-14
249 243 -3.843504336619575
249 246 -7.791711036399675E-2
249 247 -1.3468455981095495
249 248 2.362266784977942
249 249 2.8104121082680518E1
249 270 1.0433580166875454
249 361 4.8632758848140545E-1
249 362 -8.247696408050883E-1
249 363 -8.677280619787546E-1
249 374 5.268574209816361E-1
249 378 -4.871110041545501E-1
249 379 1.368969679998283E-1
249 380 -1.9982692386522936
249 396 -2.737563297187192
249 397 -1.1803535335862481E1
249 403 -9.709485539291047E-1
249 404 4.1764666467625117E-1
249 405 -2.984399624114214
249 406 9.124846198227591E-1
249 407 7.747838042917543E-2
249 408 8.728691266311996E-1
249 409 2.632474814839288E-13
249 410 1.911122189718896E-14
249 411 2.4863354111406926
249 412 -5.290472613131214E-1
249 413 -4.362236015044202
249 414 -9.502837002078985
249 441 2.581301370462948
249 442 1.8832183030008807
249 443 -8.810304999572742E-1
249 444 -5.267306568136192E-1
250 236 3.976223626521712E-1
250 237 1.8140439385854545
250 238 -3.918719028923123
250 239 1.006780194424024
250 240 -4.575083180060123
250 250 2.0890216980474015E1
250 255 -2.21988610482793
250 269 2.1198423749253044
250 274 9.091530857400343E-2
250 275 5.488011076867054E-2
250 276 2.8754405670805505E-2
250 277 3.632564509199968E-1
250 319 -1.1981416346872817
250 320 -4.638339989755467
250 374 -1.6523239891879234E-15
250 383 2.9624270275978204E-1
250 396 -1.511821578227251E-15
250 397 -3.7156049345511364
250 428 -6.078641346756023E-1
250 429 -1.8008522073725683
250 430 -4.117999170276829
250 442 5.048039875823794E-2
250 443 -3.281771555506874E-2
250 444 -2.87727127827332E-1
251 231 9.616887878106677E-2
251 232 6.248799039713113E-2
251 233 6.48417777791247E-2
251 234 1.4541775446290442E-1
251 235 7.067325446589937E-1
251 244 -3.7384642314296446E-1
251 245 -1.9034759922313649
251 246 -5.756743419206654E-1
251 247 -5.149238542544967E-1
251 251 1.1110401499976964E1
251 252 -1.2153926943906795E-1
251 253 -3.5784532175545924E-1
251 254 -2.719251417481477E-1
251 262 -7.578857816281337
251 263 2.8038481735722287E-1
251 264 -1.9054844480873354
251 265 1.4276069941735223
251 270 8.100398765241889E-1
251 271 5.490885839015036E-1
251 272 -2.1407417807741527
251 273 4.9114367162236877E-1
252 234 5.326052252969606E-1
252 235 4.450552656461665E-1
252 251 -1.2153926943906795E-1
252 252 1.064878827370114E1
252 253 2.640175800815755E-1
252 254 4.3006707437003655
252 263 -1.5333134004948226
252 264 -5.067310216949374E-1
252 265 -6.513299427327914E-1
252 266 -5.523110720269887
252 267 4.0538481735595056E-1
252 268 -2.5741741410382675
252 271 -3.8217075892386094
252 272 -9.775214185707362E-1
252 273 -1.6707693175111442
252 514 2.754578616575126E-1
252 515 3.0749920806812825E-2
252 516 3.992658667324638E-1
252 535 -5.787196506522939E-1
252 536 9.056393914604031E-1
252 537 -2.4871847479679232E-1
253 234 1.284607305583873E-1
253 235 2.719251417464469E-1
253 251 -3.5784532175545924E-1
253 252 2.640175800815755E-1
253 253 1.0221819481118098E1
253 254 2.0479047394914113E-1
253 263 -1.942310216981183E-1
253 264 -2.19991144617298
253 265 -1.7845087427169042
253 266 1.553848173584951E-1
253 267 -4.989832283727362
253 268 1.4276069941735252
253 271 -9.775214185707364E-1
253 272 -2.13172054182768
253 273 -6.314925760907782E-1
253 514 -2.817500791900063E-1
253 515 -8.697151769109412E-1
253 516 -7.337706729067561E-2
253 535 9.056393914604033E-1
253 536 3.272052892763232E-1
253 537 5.850557762292455E-1
254 234 4.478018772017619E-1
254 235 1.2985672559737484
254 251 -2.719251417481477E-1
254 252 4.3006707437003655
254 253 2.0479047394914113E-1
254 254 1.7670137709515764E1
254 263 1.6712243821152384E-1
254 264 -1.7845087427169042
254 265 -5.202741940043479
254 266 -1.6813169981814695
254 267 1.427606994173525
254 268 -1.271221004962958E1
254 271 -2.6433090503277943
254 272 -1.218509114488531
254 273 -3.3591152696926567
254 514 5.533532186047994E-1
254 515 5.136394711070776E-1
254 516 8.410187349846606E-1
254 535 -1.1443222292091868
254 536 1.1289060597238398
254 537 1.4643435588915432
255 236 4.797896650264163E-1
255 237 -5.1053447957533065
255 238 1.9663486862520294
255 239 -1.6881009311987054
255 240 7.164119612131149E-1
255 244 -1.0126148204662309
255 245 -2.3763296240321803
255 246 8.284696077471319E-1
255 247 3.3042926567153624E-1
255 250 -2.21988610482793
255 255 5.596356030899857E1
255 256 -1.5643600015529674E-1
255 257 -7.649701457106153E-1
255 258 9.464602089403393E-1
255 262 -3.28262715893984E1
255 263 -1.0393595129496065
255 264 -1.2337137410852097
255 265 -1.6315508504842495
255 270 -7.036297009166599
255 271 1.3175917298854511
255 272 1.2434331846252795
255 273 5.371738880726524E-2
255 274 -2.416777874317153
255 275 2.107304971941754
255 276 -1.0213653317387829E1
255 277 2.5144885038444285
255 374 2.390034979195277
255 383 8.780515884471068E-1
255 396 -1.71469629827802
255 397 -3.0008943538435406E-1
256 239 9.813399649605475E-1
256 240 9.273343233115785E-1
256 255 -1.5643600015529674E-1
256 256 3.8882392075872616E1
256 257 3.6289171009577217
256 258 1.0945866345578567E1
256 259 4.219849199898103E-1
256 260 -2.789564264054029E-1
256 261 -3.9472054569776105E-1
256 263 -2.312935426201456E1
256 264 -6.252471950334237E-1
256 265 -1.041048679055886E1
256 266 -1.8485670559329803
256 267 4.0943245536509554E-1
256 268 7.188386868614716E-1
256 271 -3.9721464817641543
256 272 -1.3961402785096837
256 273 2.4341478646486814
256 275 -7.861165349744134
256 276 -2.685535501743937
256 277 -2.821713564037255
256 321 -2.204304235571068
256 322 -5.1552151545395775E-2
256 323 6.153605110414327E-1
256 339 -1.2701795757960788
256 340 1.1555179970703229
256 341 -2.014626831147858
257 239 2.143821198797151E-1
257 240 9.464602089403403E-1
257 255 -7.649701457106153E-1
257 256 3.6289171009577217
257 257 3.699144850233111E1
257 258 3.5763263285703157
257 259 -6.018730930966328E-1
257 260 -8.798618890073677E-1
257 261 1.2519923468739251
257 263 -6.877471950327771E-1
257 264 -1.734097082150292E1
257 265 -1.223663137862384
257 266 2.427657887001076E-1
257 267 -4.468944603031826
257 268 -2.8630254134513358
257 271 -1.3961402785096837
257 272 -3.9406316556208534
257 273 -4.666910662993348E-1
257 275 -2.300118835053353
257 276 -9.012857934777388
257 277 -3.181067271361586
257 321 -2.557036049154203E-1
257 322 -2.021588801612175
257 323 1.5734103093701586
257 339 1.155517997070323
257 340 1.438377348932036
257 341 3.862576952199004E-1
258 239 6.57984181696827E-1
258 240 8.870876438470804E-1
258 255 9.464602089403393E-1
258 256 1.0945866345578567E1
258 257 3.5763263285703157
258 258 5.592534569810533E1
258 259 -1.0430387907187133E-1
258 260 1.2519923468739265
258 261 1.096993951877024
258 263 -1.1452153457214857E1
258 264 -1.2236631378623841
258 265 -3.778430297806127E1
258 266 1.9800535353333343E-1
258 267 -2.863025413451335
258 268 -2.512533343920568
258 271 2.434147864648678
258 272 -4.6669106629933466E-1
258 273 -3.1678369178454586
258 275 -2.0704635640071443
258 276 -3.1810672713615853
258 277 -8.949383490550147
258 321 1.405543985984321
258 322 1.5734103093701557
258 323 -6.294142966315202
258 339 -2.0146268311478575
258 340 3.862576952199013E-1
258 341 7.987724028631928E-1
259 256 4.219849199898103E-1
259 257 -6.018730930966328E-1
259 258 -1.0430387907187133E-1
259 259 3.958815756312828E1
259 260 -8.686591148450793E-1
259 261 -1.1098667639787918E1
259 266 -2.6947290013438064E1
259 267 4.9404621643431657E-1
259 268 1.1521346175270274E1
259 313 2.6641309533448865E-1
259 314 -5.897811406039953E-1
259 315 -4.3732403251284524E-1
259 321 -2.0292263291204966
259 322 1.8022361495664269E-1
259 323 1.87058606692392E-1
259 339 -4.586781714996847
259 340 -9.544222064558179E-1
259 341 -1.6331304725375526E-1
259 521 4.7092411485677055E-1
259 522 -3.214572633979228E-1
259 523 -1.3431610521865986E-1
259 524 3.267157489957924E-1
259 525 5.741595462502014E-1
259 526 -1.8566688704421502E-1
259 541 -7.1879801704178
259 542 1.0769278106348705
259 543 2.4222075060200116E-1
259 548 -3.229172143319463E-1
259 549 1.0108356301234165
259 550 1.7296605832460013E-1
260 256 -2.789564264054029E-1
260 257 -8.798618890073677E-1
260 258 1.2519923468739265
260 259 -8.686591148450793E-1
260 260 3.770540713153838E1
260 261 1.6444189648068923
260 266 4.523795497665003E-1
260 267 -2.301827505734014E1
260 268 -1.2786229602348012
260 313 -5.793644739362565E-1
260 314 1.4507191657824117
260 315 -4.693573952243524E-2
260 321 7.010569482921704E-1
260 322 -4.078474058484547
260 323 -2.2453234345504223
260 339 -9.544222064558184E-1
260 340 -2.5508957379411266
260 341 -3.467864547690751E-2
260 521 -5.922905967559403E-1
260 522 -3.915401674782108E-1
260 523 1.208356695307795
260 524 3.8665954624999604E-1
260 525 -5.989375432112263E-1
260 526 -1.861285313288032
260 541 7.227611439664142E-1
260 542 -8.267489734601748
260 543 1.3253496757270562
260 548 1.0108356301234163
260 549 6.29347890743561E-1
260 550 3.672841035692781E-2
261 256 -3.9472054569776105E-1
261 257 1.2519923468739251
261 258 1.096993951877024
261 259 -1.1098667639787918E1
261 260 1.6444189648068923
261 261 7.489973096429625E1
261 266 1.047967950860107E1
261 267 -1.2786229602348025
261 268 -5.420873423228716E1
261 313 9.225930081727779E-2
261 314 -4.693573952243463E-2
261 315 -2.5773789305218537
261 321 7.078919400567305E-1
261 322 -2.2453234345504214
261 323 -3.947022718628386
261 339 -1.633130472537562E-1
261 340 -3.467864547690743E-2
261 341 -4.5833753271676425
261 521 1.473505614183647E-1
261 522 1.2083566953077958
261 523 1.644076111773111
261 524 -7.065002203854603E-1
261 525 -1.861285313288032
261 526 -7.777765549231476E-2
261 541 7.630540839068555E-1
261 542 1.3253496757270564
261 543 -1.5028474246081323E1
261 548 1.7296605832460016E-1
261 549 3.6728410356927726E-2
261 550 2.781962082232267
262 231 3.4294370706915905E-1
262 232 -1.8659960356186867
262 233 1.3616773333744436
262 234 -6.238464231404203E-1
262 235 -1.9034759922313662
262 236 -6.228498855207146E-1
262 237 -9.607704673260291E-1
262 238 -1.556202666713888
262 239 -9.292814871337531E-1
262 240 -2.3763296240321816
262 241 1.0776648147528853E-1
262 242 2.685427220378509E-1
262 243 5.835760000170089E-1
262 244 1.8828943637987545
262 245 3.0749795243449407
262 246 -7.814199007679556E-1
262 247 -3.1025518823580094E-14
262 251 -7.578857816281337
262 255 -3.28262715893984E1
262 262 4.4646856703219015E1
262 263 -1.2153926943908899E-1
262 264 -1.5262865414930304E-1
262 265 8.157754252410434E-1
262 270 -2.536923324531968
262 271 7.453324136587312E-1
262 272 1.006048462048867
262 273 3.034124480051885E-14
263 234 -1.7214514808025683
263 235 -4.441223628427238E-2
263 239 -1.485364519235321
263 240 -1.0334268319909903
263 244 1.0456468943107593
263 245 8.887372255147185E-1
263 251 2.8038481735722287E-1
263 252 -1.5333134004948226
263 253 -1.942310216981183E-1
263 254 1.6712243821152384E-1
263 255 -1.0393595129496065
263 256 -2.312935426201456E1
263 257 -6.877471950327771E-1
263 258 -1.1452153457214857E1
263 262 -1.2153926943908899E-1
263 263 3.225633387383514E1
263 264 6.224200085210182E-1
263 265 1.1739699425092796E1
263 266 -5.728524074496845E-1
263 267 1.140072173241351
263 268 -2.655665633289266E-1
263 271 -4.85964469814894
263 272 -1.488455030156563E-15
263 273 9.853555868635186E-15
264 234 4.678848173553146E-1
264 235 1.4276069941735232
264 239 -8.935261796177439E-1
264 240 -1.6315508504842502
264 244 1.2846073055837642E-1
264 245 8.157754252410419E-1
264 251 -1.9054844480873354
264 252 -5.067310216949374E-1
264 253 -2.19991144617298
264 254 -1.7845087427169042
264 255 -1.2337137410852097
264 256 -6.252471950334237E-1
264 257 -1.734097082150292E1
264 258 -1.2236631378623841
264 262 -1.5262865414930304E-1
264 263 6.224200085210182E-1
264 264 2.6004916309811485E1
264 265 1.3766210300977406
264 266 8.067388399113977E-1
264 267 -1.2283493195541555
264 268 1.0197192815512328
264 271 -1.951595054358139E-15
264 272 -1.9438578792595722
264 273 -5.56728852973138E-16
265 234 -8.628646172279697E-1
265 235 -5.718651864356811
265 239 -5.125934986628733E-1
265 240 -7.768795029530408E-1
265 244 6.655229398030361E-1
265 245 1.5037839235816346
265 251 1.4276069941735223
265 252 -6.513299427327914E-1
265 253 -1.7845087427169042
265 254 -5.202741940043479
265 255 -1.6315508504842495
265 256 -1.041048679055886E1
265 257 -1.223663137862384
265 258 -3.778430297806127E1
265 262 8.157754252410434E-1
265 263 1.1739699425092796E1
265 264 1.3766210300977406
265 265 4.950080241472657E1
265 266 3.2052484286651944E-2
265 267 1.0197192815512313
265 268 4.218478263659633E-1
265 271 1.292038371161872E-14
265 272 -9.98998249220155E-16
265 273 -1.94385787925956
266 252 -5.523110720269887
266 253 1.553848173584951E-1
266 254 -1.6813169981814695
266 256 -1.8485670559329803
266 257 2.427657887001076E-1
266 258 1.9800535353333343E-1
266 259 -2.6947290013438064E1
266 260 4.523795497665003E-1
266 261 1.047967950860107E1
266 263 -5.728524074496845E-1
266 264 8.067388399113977E-1
266 265 3.2052484286651944E-2
266 266 4.3691402342469786E1
266 267 -1.4255021775021075
266 268 -9.732631710783988
266 271 1.7603090360945386
266 272 -1.7614187506101255
266 273 1.6563302204889314
266 339 -2.330305365923359
266 340 -1.2943389862032142
266 341 -2.9975038818838673
266 514 -8.305630923698084E-1
266 515 -2.9262001900353224E-1
266 516 -5.75477774349783E-2
266 524 -2.5834374788297345
266 525 1.0168737635984346E-1
266 526 1.8076606440752785E-1
266 535 -5.923358783132891
266 536 1.8581889040434563
266 537 3.7023247013477407
266 548 1.10777353878208
266 549 1.1567346571791788
266 550 -1.7801579643809529
267 252 4.0538481735595056E-1
267 253 -4.989832283727362
267 254 1.427606994173525
267 256 4.0943245536509554E-1
267 257 -4.468944603031826
267 258 -2.863025413451335
267 259 4.9404621643431657E-1
267 260 -2.301827505734014E1
267 261 -1.2786229602348025
267 263 1.140072173241351
267 264 -1.2283493195541555
267 265 1.0197192815512313
267 266 -1.4255021775021075
267 267 4.3116476810677895E1
267 268 2.863676844515341
267 271 -1.761418750610125
267 272 1.2160253061014907
267 273 2.0090242967969925
267 339 -1.2943389862032142
267 340 -9.443897439024884E-1
267 341 -1.6807888295556124
267 514 -6.676200190013027E-1
267 515 -1.4395396911884344
267 516 -1.849102095955317
267 524 -3.149792903025991E-1
267 525 -5.819992001601602
267 526 4.4109622863341946E-1
267 535 1.8581889040434558
267 536 -3.5061292397610155
267 537 -2.017819426526711
267 548 1.1567346571791783
267 549 1.082949823327633
267 550 1.9282350800532697
268 252 -2.5741741410382675
268 253 1.4276069941735252
268 254 -1.271221004962958E1
268 256 7.188386868614716E-1
268 257 -2.8630254134513358
268 258 -2.512533343920568
268 259 1.1521346175270274E1
268 260 -1.2786229602348012
268 261 -5.420873423228716E1
268 263 -2.655665633289266E-1
268 264 1.0197192815512328
268 265 4.218478263659633E-1
268 266 -9.732631710783988
268 267 2.863676844515341
268 268 7.643516476515626E1
268 271 1.6563302204889314
268 272 2.0090242967969916
268 273 3.343310144733028
268 339 -2.9975038818838673
268 340 -1.6807888295556128
268 341 -1.3937335135993019
268 514 -8.015953964886058E-1
268 515 -1.8491020959553164
268 516 -3.2093106949738317
268 524 5.527898739361887E-1
268 525 4.410962286334179E-1
268 526 -2.231269646485246
268 535 3.7023247013477407
268 536 -2.0178194265267115
268 537 -5.7443824660891405
268 548 -1.780157964380952
268 549 1.9282350800532697
268 550 1.811851210729579
269 250 2.1198423749253044
269 269 3.263213704537419E1
269 274 -2.290043229256504
269 275 1.8134809228807753
269 276 -9.787038165978165
269 277 -2.641593634626014
269 307 -6.238464231507193E-1
269 308 -7.578857816543913
269 309 1.903475992262794
269 316 -1.0345939801797635
269 317 -1.5431729044311746
269 318 -1.0557549802633248E-1
269 319 -1.732494749198695
269 320 1.1662896205128312
269 324 3.248527782583387E-1
269 325 -9.134512031468876
269 326 -3.7680843411295584E-1
269 332 1.6448558886653974
269 333 2.2376052364733074
269 334 -4.8722370434074416E-2
269 374 2.655968579256737
269 383 9.605516578934941E-1
269 396 -1.5901537723218735
269 397 3.320130254822398E-1
269 425 3.4294370707531047E-1
269 426 -1.8659960352703182
269 427 -1.3616773333988688
269 428 -1.0559602992226619E-1
269 429 -5.3260906781552855
269 430 -9.872437425849233E-1
270 231 3.5840496591379256E-1
270 232 -1.7856583732270659
270 233 9.181654267794855E-1
270 234 -5.756743419206656E-1
270 235 -1.058774137749092
270 236 1.4748720052300635
270 237 3.8790186798691506E-2
270 238 -1.8067880570688313
270 239 8.28469607747129E-1
270 240 3.3042926567153363E-1
270 241 4.8871639565790165E-1
270 242 9.324513174704816E-1
270 243 3.9901113285342634E-14
270 244 -7.814199007679548E-1
270 245 -2.886507547308276E-14
270 246 1.6156192036928885
270 247 3.8635344257778437
270 248 -2.8251551946405035E-1
270 249 1.0433580166875454
270 251 8.100398765241889E-1
270 255 -7.036297009166599
270 262 -2.536923324531968
270 270 3.4295417631510205E1
270 271 -2.5171673460952304
270 272 -1.1657193787212439E1
270 273 -3.7510955749681347
270 275 -1.6717404702692962
270 276 2.938564692479436
270 277 1.1832503403715027
270 288 1.7324099235785486
270 289 -4.044000040204572
270 290 1.732644346522661E-1
270 339 1.9255024392175033
270 340 1.8807896814097744
270 341 3.1302779171395603
270 361 -8.282548970037567E-1
270 374 -7.7011924260263385
270 378 -1.8191357605604848
270 379 -1.0671182304126892E-2
270 396 -7.763412019601446E-1
270 397 -4.014950874989563
270 441 -5.306533528820038
271 234 -3.6131943420589434
271 235 -2.444510491465686
271 239 1.8221134452002028
271 240 1.2726754136702474
271 244 5.523918409753401E-1
271 245 7.789022380987573E-13
271 246 -7.625051555494991
271 247 -1.5465742275863203
271 251 5.490885839015036E-1
271 252 -3.8217075892386094
271 253 -9.775214185707364E-1
271 254 -2.6433090503277943
271 255 1.3175917298854511
271 256 -3.9721464817641543
271 257 -1.3961402785096837
271 258 2.434147864648678
271 262 7.453324136587312E-1
271 263 -4.85964469814894
271 264 -1.951595054358139E-15
271 265 1.292038371161872E-14
271 266 1.7603090360945386
271 267 -1.761418750610125
271 268 1.6563302204889314
271 270 -2.5171673460952304
271 271 3.1862016427240242E1
271 272 2.761836793758176
271 273 5.239863877369788
271 275 4.273383796417207
271 276 1.448222620421166
271 277 1.4963058394128503
271 285 -3.3402495130310217
271 286 1.5247820886538335
271 287 2.4424220873965985E-1
271 288 -3.1986882711652713
271 289 -1.8880697716288586
271 290 -1.4379624109683597
271 339 -8.89412126119535
271 340 -6.041265466869755E-1
271 341 -4.416151623550683
271 535 -9.454108338302536E-1
271 536 7.975898818227496E-1
271 537 1.4494237956789613E-1
272 234 5.49088583901504E-1
272 235 1.0098778938601771
272 239 1.3175917298854536
272 240 5.371738880726832E-2
272 244 7.453324136587298E-1
272 245 2.7527554469017736E-14
272 246 -2.517167346095232
272 247 -2.7204551343945282
272 251 -2.1407417807741527
272 252 -9.775214185707362E-1
272 253 -2.13172054182768
272 254 -1.218509114488531
272 255 1.2434331846252795
272 256 -1.3961402785096837
272 257 -3.9406316556208534
272 258 -4.6669106629933466E-1
272 262 1.006048462048867
272 263 -1.488455030156563E-15
272 264 -1.9438578792595722
272 265 -9.98998249220155E-16
272 266 -1.7614187506101255
272 267 1.2160253061014907
272 268 2.0090242967969916
272 270 -1.1657193787212439E1
272 271 2.761836793758176
272 272 3.1404691703036193E1
272 273 3.137964425541119
272 275 1.4482226204211668
272 276 2.9361903472422513
272 277 -1.2564093362104245
272 285 1.524782088653834
272 286 -5.317843723712236E-1
272 287 3.0102587472856923E-1
272 288 -1.888069771628858
272 289 -1.773386253004891
272 290 -3.6834829086029286E-1
272 339 -6.041265466869772E-1
272 340 -8.344863448417835
272 341 5.045415958592688E-1
272 535 7.975898818227498E-1
272 536 -5.34220928456544
272 537 -9.857385333403094E-1
273 234 -1.5490936885309714
273 235 -3.983694171977076
273 239 1.272675413670249
273 240 2.279643177487937
273 244 7.762629780126356E-13
273 245 2.827211515220601
273 246 -1.5168461152145936
273 247 -9.802384720132022
273 251 4.9114367162236877E-1
273 252 -1.6707693175111442
273 253 -6.314925760907782E-1
273 254 -3.3591152696926567
273 255 5.371738880726524E-2
273 256 2.4341478646486814
273 257 -4.666910662993348E-1
273 258 -3.1678369178454586
273 262 3.034124480051885E-14
273 263 9.853555868635186E-15
273 264 -5.56728852973138E-16
273 265 -1.94385787925956
273 266 1.6563302204889314
273 267 2.0090242967969925
273 268 3.343310144733028
273 270 -3.7510955749681347
273 271 5.239863877369788
273 272 3.137964425541119
273 273 3.4426660403204195E1
273 275 1.4963058394128539
273 276 -1.2564093362104236
273 277 -6.096279308975145E-1
273 285 -7.580256364487203E-1
273 286 7.446497769044211E-1
273 287 9.554473399226271E-2
273 288 -2.2698584047179318
273 289 -9.503677519992224E-1
273 290 -1.6296038877986145
273 339 -4.416151623550686
273 340 5.045415958592683E-1
273 341 -1.737759678711074E1
273 535 8.14215703827562E-2
273 536 1.1501515003642948E-1
273 537 -1.0986524099243884
274 236 -3.356913348044415E-1
274 237 -1.1542361404606398
274 238 1.8140439385854554
274 239 4.2390013507961755E-1
274 240 -2.219886104827931
274 250 9.091530857400343E-2
274 255 -2.416777874317153
274 269 -2.290043229256504
274 274 1.9614643201114767E1
274 275 1.1452896389324798
274 276 -3.8345973500763493
274 277 2.8754405670806005E-2
274 319 5.39703111260263E-1
274 320 2.1198423749253035
274 374 -3.715604934551136
274 383 -9.695984456568838E-1
274 396 -4.131450840870842E-15
274 397 -9.701541090684137E-16
274 428 -4.694324057771109E-1
274 429 -1.2216457108857965
274 430 -1.8008522073725695
274 442 -3.3417069903392005E-1
274 443 -4.981737961567186
274 444 -3.2817715555067684E-2
275 239 -1.0572749904113069E1
275 240 -3.5154854850477766
275 246 1.39962143820912
275 247 3.033048710608016
275 250 5.488011076867054E-2
275 255 2.107304971941754
275 256 -7.861165349744134
275 257 -2.300118835053353
275 258 -2.0704635640071443
275 269 1.8134809228807753
275 270 -1.6717404702692962
275 271 4.273383796417207
275 272 1.4482226204211668
275 273 1.4963058394128539
275 274 1.1452896389324798
275 275 4.243955023328926E1
275 276 -8.196468406424486E-2
275 277 9.996097679724496E-1
275 316 -6.573088090996852
275 317 -1.7384523372985716
275 318 1.5654260787709477
275 319 -9.204415530220526
275 320 2.8797625858903215
275 321 -6.820407812062299E-1
275 322 -7.822503419617137E-1
275 323 1.374002436471606E-1
275 324 2.178475937492115E-1
275 325 -1.7606332661970072
275 326 -3.0589884915402568
275 332 3.4494683018391137
275 333 1.5404653200210952
275 334 -1.7501701133790026
275 339 -1.0778835329821883E1
275 340 2.8311598148820316
275 341 1.1861930253818506E-1
275 374 -2.5507633542351167
275 383 -1.4977202128847669
275 396 -4.609856164516447
275 397 1.1005501436557709E-1
276 239 2.3842970254613554
276 240 2.5144885038444293
276 246 -1.6717404702692948
276 247 1.1832503403715011
276 250 2.8754405670805505E-2
276 255 -1.0213653317387829E1
276 256 -2.685535501743937
276 257 -9.012857934777388
276 258 -3.1810672713615853
276 269 -9.787038165978165
276 270 2.938564692479436
276 271 1.448222620421166
276 272 2.9361903472422513
276 273 -1.2564093362104236
276 274 -3.8345973500763493
276 275 -8.196468406424486E-2
276 276 4.471287746269509E1
276 277 2.1101822075796484E-1
276 316 -2.082202337275214
276 317 -8.084471597594968
276 318 3.023994419130049
276 319 2.1198222026963034
276 320 -2.641593634626013
276 321 -1.3655836752968427
276 322 -2.820538046865252
276 323 4.90423669765514E-2
276 324 -1.7606332661970068
276 325 2.3736627285543963
276 326 -1.1796187677544876
276 332 1.5404653200210934
276 333 2.619003550275773
276 334 1.2252396931153475
276 339 2.8311598148820307
276 340 -6.979987369400121
276 341 2.1194858792251137E-2
276 374 -4.847154999166876
276 383 1.8744563055997068
276 396 -2.5507633542351176
276 397 1.7062012936090998E-3
277 239 -4.320336334849349
277 240 -1.3444164286184238E1
277 246 3.0330487106080177
277 247 9.864562177659685E-1
277 250 3.632564509199968E-1
277 255 2.5144885038444285
277 256 -2.821713564037255
277 257 -3.181067271361586
277 258 -8.949383490550147
277 269 -2.641593634626014
277 270 1.1832503403715027
277 271 1.4963058394128503
277 272 -1.2564093362104245
277 273 -6.096279308975145E-1
277 274 2.8754405670806005E-2
277 275 9.996097679724496E-1
277 276 2.1101822075796484E-1
277 277 4.541882186035722E1
277 316 2.316676078768765
277 317 3.023994419130049
277 318 -8.383263893928866
277 319 3.684613435726208
277 320 -1.3077796099952419E1
277 321 1.3740024361284686E-1
277 322 4.904236697655301E-2
277 323 1.1578706866515396
277 324 -3.0589884915402585
277 325 -1.1796187677544852
277 326 4.8153913762193856E-1
277 332 -1.7501701133790002
277 333 1.2252396931153477
277 334 -9.966720496235331E-1
277 339 1.1861930253818491E-1
277 340 2.1194858792248972E-2
277 341 -2.8059209810279087
277 374 1.706201293607934E-3
277 383 5.488011080096205E-2
277 396 1.1005501436557913E-1
277 397 -1.4111562115203824E-1
278 11 3.563914917209626E-2
278 22 2.295730286896485
278 23 -2.0695708589550614
278 27 -1.6482027171040987
278 28 -1.971494721028483
278 29 8.32014675473385E-1
278 30 3.957352127235599E-1
278 31 -1.3496076108838597
278 33 -9.507860251684871
278 34 2.0801466387218365E-1
278 35 2.0671666653601317E-1
278 42 -3.118744736887487
278 43 -1.1054206370336644E-1
278 48 2.141457450428688
278 49 -1.4584167052170278
278 50 -2.1570770187144053
278 278 2.9074679202380324E1
278 279 -9.129504885842716E-1
278 280 -1.429668685320733E-1
278 282 -3.9882317052362666
278 283 2.4252981824765456
278 284 3.458601924322882E-1
278 291 -3.8511224599977885
278 292 9.757439788636061E-1
278 293 -3.6585683701028593E-1
278 300 -6.764801872024029
278 301 -6.84637869597736E-1
278 302 4.228191388182314
278 306 -1.141838135458408
278 551 -1.9211581288179687
279 11 -3.3457963309407903
279 22 -2.0695708589550623
279 23 -5.165983119056989E-1
279 27 1.3738124942459262E-1
279 28 -3.692244969944717E-1
279 29 1.2934487015943164E-1
279 30 4.7173412586512925E-1
279 31 5.031720210738798E-1
279 33 -7.431410627064162E-1
279 34 1.5592879902203188E-1
279 35 -3.735895136832737
279 42 -2.1136179929720647E-1
279 43 5.770957854499867E-1
279 48 1.8355446645312643
279 49 -3.123808872673324
279 50 -5.061327005411319
279 278 -9.129504885842716E-1
279 279 2.390028408871074E1
279 280 1.9279440673501358E-1
279 282 6.495790320687647E-1
279 283 -1.1251097970813646
279 284 -2.934485060519227
279 291 5.757775375078092E-1
279 292 1.4797768620571977E-1
279 293 -1.8363827824761725E-1
279 300 4.228191388182312
279 301 1.2868952371429563
279 302 -8.444683241747793
279 306 -2.157077018714404
279 551 1.429668685320734E-1
280 11 -3.903871087185023
280 30 -5.031720210738803E-1
280 31 -1.3568452754184201E-1
280 42 -2.8576118253707756
280 43 7.340196276330055E-1
280 278 -1.429668685320733E-1
280 279 1.9279440673501358E-1
280 280 2.24253539427061E1
280 285 2.9515758976516207
280 286 -9.353315575290296E-1
280 287 -3.872607328583622
280 291 -1.4844412037708993E-1
280 292 -5.717882125744119E-1
280 293 -2.527542176707676E-1
280 300 -8.941771753351193E-1
280 301 -3.2601689266440212
280 302 -7.147718806983371
280 551 5.079221124028371E-2
280 552 1.5824398552745755E-1
280 553 5.913969231534489E-1
280 554 1.0500000058401115E-1
280 568 1.5632515569019398E-1
280 569 2.4025802971491356E-1
280 583 9.127394782876275E-1
280 584 3.3278470613157625
280 585 -7.786454939317255
280 608 5.664048944788428E-1
281 5 -1.3914198027575175E-1
281 6 3.688805845858607E-1
281 7 1.3217065683999374E-1
281 8 9.132102884175921E-1
281 9 -4.898980356835242E-1
281 10 -5.023806573884962E-1
281 12 7.362415749136553E-1
281 13 -1.5242645289594792E-1
281 14 -3.7397474948842255
281 19 2.1588754884820488E-1
281 20 -5.621323456971238E-1
281 21 -3.3904185239479374
281 22 2.0645891046745897
281 23 -5.085593689451495E-1
281 48 -1.8425529317229474
281 49 3.1227833432966943
281 50 -5.052000179804876
281 281 2.3894168230178703E1
281 297 -6.495790320687651E-1
281 298 -2.9344850605192256
281 299 -1.8363827824761736E-1
281 300 -4.218073643808525
281 301 -1.281604609421715
281 302 -8.418606886619205
281 306 2.1550243341953057
281 338 -5.757775375078094E-1
281 365 1.1251097970813646
281 560 -1.4018166333694226E-1
281 561 2.0111690594953785E-1
281 580 -1.4797768620571955E-1
282 27 -3.538879071079834
282 28 7.78520746296433E-1
282 29 5.216807987047757E-1
282 30 2.425298182476545
282 32 -1.9316196209714351
282 49 -4.360624371926228E-1
282 50 -3.784858026729272
282 180 -1.4003222691877562
282 181 -7.969131564709186E-1
282 278 -3.9882317052362666
282 279 6.495790320687647E-1
282 282 2.8506152403045302E1
282 283 -7.807382940967342E-1
282 284 2.6700577909091567
282 291 -4.331693073740671
282 292 -2.9395398034885147
282 293 -1.7811679202520514
282 294 -5.421672731417514
282 295 6.074355906701163E-1
282 296 -2.3910180142054553
282 300 3.902628620266868
282 301 -2.8922526803016874E-1
282 302 3.6433379094250545E-1
282 303 -1.477527684329752
282 304 7.25287705222791E-1
282 305 3.420524235786764
282 306 -7.766696334002839
282 364 1.8406431991135912
282 381 -4.483758154317535
282 382 1.1277814692457317
283 27 7.785207462964321E-1
283 28 1.2153095361970734E-1
283 29 2.3614568830455346E-2
283 30 -6.8056275505608745
283 32 -2.4409462505617103
283 49 -6.695183627084554
283 50 -2.441527000913368
283 180 -1.9316196209714347
283 181 -2.0493494207200086E-1
283 278 2.4252981824765456
283 279 -1.1251097970813646
283 282 -7.807382940967342E-1
283 283 3.0743145400421138E1
283 284 5.741744603177638
283 291 -2.939539803488515
283 292 -4.930916811238589
283 293 -2.0783861428956474
283 294 6.07435590670118E-1
283 295 -1.317143723017789
283 296 7.402486930102747E-1
283 300 -2.8922526803016846E-1
283 301 2.0177943392749226E-1
283 302 2.812127419932815
283 303 7.252877052227908E-1
283 304 1.1518087950913372
283 305 -3.706004190194514E-1
283 306 -4.360624371926234E-1
283 364 -1.0028446620596162E1
283 381 1.8406431991135914
283 382 -3.0971769829693514
284 27 -4.565709125276689E-1
284 28 2.2941989282579675E-1
284 29 2.6566917751373154E-2
284 30 -1.7882863672531724E-1
284 32 -1.0066865394624696
284 49 -2.4415270009133656
284 50 -1.4101642781235634E1
284 180 -1.3960836427104333
284 181 -3.760566258190877E-1
284 278 3.458601924322882E-1
284 279 -2.934485060519227
284 282 2.6700577909091567
284 283 5.741744603177638
284 284 2.9272637935114737E1
284 291 -1.2182473900492876
284 292 -1.4482099942412061
284 293 -3.4598921445034034
284 294 -1.4881286883294642
284 295 5.957191300446935E-1
284 296 -2.5093370532290877
284 300 3.643337909425054E-1
284 301 2.812127419932815
284 302 2.409108917207915
284 303 3.420524235786765
284 304 -3.7060041901945145E-1
284 305 -1.6614546311365903
284 306 -3.784858026729272
284 364 -3.9331584556191332
284 381 1.5431126502754118
284 382 -6.665445473630998
285 31 -7.398159285540739
285 271 -3.3402495130310217
285 272 1.524782088653834
285 273 -7.580256364487203E-1
285 280 2.9515758976516207
285 285 3.290529423531362E1
285 286 9.702499175841148E-2
285 287 -3.862060798351534
285 288 -4.488177233874514
285 289 2.1695734156183595
285 290 -9.245600684531591E-2
285 291 -5.275283020781272
285 292 -2.9761838032292145
285 293 2.0008225045719255
285 300 -2.3920826750974586
285 301 -6.114129614989763E-1
285 302 -3.246468865756808
285 303 2.7410156602203792
285 304 -7.758084107804676E-1
285 305 -1.6823048349766367E-1
285 339 -9.216163883664342
285 340 -4.273193058502085E-1
285 341 4.7863941729940604
285 535 -1.6480814823246583
285 536 -1.9094610097120304
285 537 -2.615154704470813E-1
285 551 1.666932375270905
285 552 -4.267200645259708
285 553 -6.103362685496752E-1
285 554 5.013464385706534E-2
285 583 2.3790878440397085
285 584 1.852208888319061
285 585 -1.4001699577275482
286 31 1.6669323752709073
286 271 1.5247820886538335
286 272 -5.317843723712236E-1
286 273 7.446497769044211E-1
286 280 -9.353315575290296E-1
286 285 9.702499175841148E-2
286 286 3.423173758242404E1
286 287 -1.085474125599807
286 288 2.16957341561836
286 289 -8.707645203610948
286 290 4.746431019122116E-1
286 291 -2.976183803229216
286 292 -4.688110759208962
286 293 1.8653708323274925
286 300 -6.114129614989745E-1
286 301 4.061689826567728E-1
286 302 -7.207671907861697E-1
286 303 -7.758084107804689E-1
286 304 -6.951759974404601E-1
286 305 -3.4908888221562844
286 339 -4.2731930585020883E-1
286 340 -7.058905240313148
286 341 1.1801113857051635
286 535 -1.9094610097120301
286 536 -1.0165132626323412
286 537 -7.9986464060252E-1
286 551 -2.56303297601023
286 552 -6.103362685496774E-1
286 553 -1.0204968284189922E1
286 554 -3.2692549006205296E-1
286 583 1.852208888319061
286 584 8.282295306964316E-1
286 585 3.0944767298865745
287 31 2.0052947372908854
287 271 2.4424220873965985E-1
287 272 3.0102587472856923E-1
287 273 9.554473399226271E-2
287 280 -3.872607328583622
287 285 -3.862060798351534
287 286 -1.085474125599807
287 287 3.135974123344062E1
287 288 1.7745208620005892E-2
287 289 -5.352254542490802E-1
287 290 -3.901647716319561
287 291 1.256808677912957
287 292 1.2293446062175155
287 293 -3.4463665059993946
287 300 -3.246468865756809
287 301 -7.207671907861695E-1
287 302 -3.181067321918105
287 303 -1.6823048349766312E-1
287 304 -3.490888822156285
287 305 3.4659157172222793E-1
287 339 4.7863941729940604
287 340 1.1801113857051637
287 341 -1.4224639092565246E1
287 535 5.745644744483311E-1
287 536 -9.371492408239124E-2
287 537 6.913420462486979E-1
287 551 -6.316127178878655E-1
287 552 -2.0811937467234523E-1
287 553 7.527246382237769E-1
287 554 -4.59959142478784
287 583 -1.4001699577275482
287 584 3.0944767298865723
287 585 7.326998047699605E-1
288 246 -1.0481608874758653E1
288 247 -1.2682272366730554
288 270 1.7324099235785486
288 271 -3.1986882711652713
288 272 -1.888069771628858
288 273 -2.2698584047179318
288 285 -4.488177233874514
288 286 2.16957341561836
288 287 1.7745208620005892E-2
288 288 3.403928695949707E1
288 289 3.0122570737612564E-1
288 290 3.28190867140341
288 291 -2.678317031047559
288 292 1.4032883669276752
288 293 2.057958217667757E-1
288 294 -3.7313451795255808
288 295 -1.9378295338629616
288 296 2.7802794808174675E-1
288 303 -8.901801485929521
288 304 -1.9593818057682316E-1
288 305 -5.623929374908989
288 339 8.452253294658152E-3
288 340 -1.5571333951349553
288 341 2.9510150296204385
288 361 -1.7805981080088906
288 374 1.7530715757117783
288 378 -3.793270198193783
288 379 -2.4539200848094833E-1
288 396 3.225469061703156
288 397 2.67291434528855
289 246 1.7324099235785497
289 247 6.555516774577075E-1
289 270 -4.044000040204572
289 271 -1.8880697716288586
289 272 -1.773386253004891
289 273 -9.503677519992224E-1
289 285 2.1695734156183595
289 286 -8.707645203610948
289 287 -5.352254542490802E-1
289 288 3.0122570737612564E-1
289 289 3.0011530695482005E1
289 290 2.4057340648693715E-1
289 291 1.4032883669276752
289 292 -3.9787188462167056E-2
289 293 -3.1470447458812634E-1
289 294 -1.9378295338629614
289 295 -1.8543684186500753
289 296 3.948553070266665E-1
289 303 -1.9593818057682333E-1
289 304 -5.645656287795508
289 305 -9.54019104466548E-2
289 339 -1.5571333951349553
289 340 -7.244741770537E-1
289 341 2.4810264427493576
289 361 -7.924463420617645
289 374 7.022502939174999E-1
289 378 -1.7805981080088897
289 379 5.093172898651193E-1
289 396 1.7530715757117783
289 397 -2.3856245323027045
290 246 -3.3689098765092296E-1
290 247 -4.052166728925779
290 270 1.732644346522661E-1
290 271 -1.4379624109683597
290 272 -3.6834829086029286E-1
290 273 -1.6296038877986145
290 285 -9.245600684531591E-2
290 286 4.746431019122116E-1
290 287 -3.901647716319561
290 288 3.28190867140341
290 289 2.4057340648693715E-1
290 290 2.78833069565312E1
290 291 -5.9122294685973E-1
290 292 3.769902672845257E-2
290 293 7.656972777254184E-2
290 294 -5.431070854750628E-1
290 295 -1.3272600632918402E-1
290 296 -7.627151347994755E-1
290 303 -5.623929374908988
290 304 -9.540191044665437E-2
290 305 -1.1679146051914998E1
290 339 2.9510150296204385
290 340 2.481026442749357
290 341 -1.7390819318118744
290 361 -4.251056725903901E-1
290 374 -2.3856245323027037
290 378 -2.802692336040166E-1
290 379 -3.44404278913105
290 396 2.6729143452885493
290 397 -7.5147244360239E-1
291 30 9.757439788636059E-1
291 31 -3.3413390255183417E-1
291 278 -3.8511224599977885
291 279 5.757775375078092E-1
291 280 -1.4844412037708993E-1
291 282 -4.331693073740671
291 283 -2.939539803488515
291 284 -1.2182473900492876
291 285 -5.275283020781272
291 286 -2.976183803229216
291 287 1.256808677912957
291 288 -2.678317031047559
291 289 1.4032883669276752
291 290 -5.9122294685973E-1
291 291 2.2465550427815245E1
291 292 1.7219419702113166
291 293 2.1910003826160707E-2
291 294 -8.429807743049715E-1
291 295 8.908925058899282E-1
291 296 1.0341823803918127E-1
291 300 -3.1533796482859695
291 301 -1.726722779777207E-1
291 302 -2.2818743073692285
291 303 -1.9986405171051866
291 304 1.7267227797772056E-1
291 305 2.281874307369228
291 551 9.238567848252046E-1
292 30 -2.3025141744016214E-1
292 31 9.238567848252034E-1
292 278 9.757439788636061E-1
292 279 1.4797768620571977E-1
292 280 -5.717882125744119E-1
292 282 -2.9395398034885147
292 283 -4.930916811238589
292 284 -1.4482099942412061
292 285 -2.9761838032292145
292 286 -4.688110759208962
292 287 1.2293446062175155
292 288 1.4032883669276752
292 289 -3.9787188462167056E-2
292 290 3.769902672845257E-2
292 291 1.7219419702113166
292 292 2.3762956479038117E1
292 293 -6.326890935560203E-2
292 294 8.908925058899267E-1
292 295 -4.633141440722825
292 296 6.682457970195322E-1
292 300 -1.7267227797772136E-1
292 301 -3.1781785893203662
292 302 2.4396714343904864
292 303 1.726722779777214E-1
292 304 -1.97384157607079
292 305 -2.4396714343904873
292 551 -4.088728696574253
293 30 3.969632890638207E-1
293 31 -3.825423588008306E-1
293 278 -3.6585683701028593E-1
293 279 -1.8363827824761725E-1
293 280 -2.527542176707676E-1
293 282 -1.7811679202520514
293 283 -2.0783861428956474
293 284 -3.4598921445034034
293 285 2.0008225045719255
293 286 1.8653708323274925
293 287 -3.4463665059993946
293 288 2.057958217667757E-1
293 289 -3.1470447458812634E-1
293 290 7.656972777254184E-2
293 291 2.1910003826160707E-2
293 292 -6.326890935560203E-2
293 293 2.092645015401143E1
293 294 3.010387858983066E-1
293 295 -2.1676603194854538E-1
293 296 -7.803183218849001E-1
293 300 -2.281874307369227
293 301 2.439671434390486
293 302 -7.13542172900042
293 303 2.281874307369227
293 304 -2.4396714343904864
293 305 -5.744628684477471
293 551 4.107914373966076E-1
294 282 -5.421672731417514
294 283 6.07435590670118E-1
294 284 -1.4881286883294642
294 288 -3.7313451795255808
294 289 -1.9378295338629614
294 290 -5.431070854750628E-1
294 291 -8.429807743049715E-1
294 292 8.908925058899267E-1
294 293 3.010387858983066E-1
294 294 1.9893509558056305E1
294 295 1.7457077259056053E-1
294 296 1.6302522463200328
294 303 -4.041145776763976
294 304 1.0063004835064083E-16
294 305 -1.5866511513903319E-15
294 361 1.866095682434366
294 364 -1.6011650177220091
294 378 -2.779051818994382
294 379 1.152571273523227
294 381 -3.0773132770498863
294 382 -1.0526265319370385
295 282 6.074355906701163E-1
295 283 -1.317143723017789
295 284 5.957191300446935E-1
295 288 -1.9378295338629616
295 289 -1.8543684186500753
295 290 -1.3272600632918402E-1
295 291 8.908925058899282E-1
295 292 -4.633141440722825
295 293 -2.1676603194854538E-1
295 294 1.7457077259056053E-1
295 295 2.0111602602507944E1
295 296 2.7014643182193767
295 303 -2.053738034046918E-16
295 304 -4.041145776763977
295 305 -2.468747367189584E-15
295 361 -2.580284877884033
295 364 -5.685518365469243
295 378 1.8660956824343662
295 379 -6.139693814669446E-1
295 381 -1.6011650177220094
295 382 -2.333722028519394
296 282 -2.3910180142054553
296 283 7.402486930102747E-1
296 284 -2.5093370532290877
296 288 2.7802794808174675E-1
296 289 3.948553070266665E-1
296 290 -7.627151347994755E-1
296 291 1.0341823803918127E-1
296 292 6.682457970195322E-1
296 293 -7.803183218849001E-1
296 294 1.6302522463200328
296 295 2.7014643182193767
296 296 2.115841865995946E1
296 303 -1.1749008584553818E-15
296 304 -1.9372904826772802E-15
296 305 -1.0102864441909942E1
296 361 -1.2815773435148063
296 364 -3.2232367717610417
296 378 1.8410612664321213
296 379 -1.7484042675913518
296 381 -1.4617416846676272
296 382 -5.2547794405447
297 5 -3.538879071079835
297 6 7.78520746296433E-1
297 7 -5.216807987047758E-1
297 8 -3.988231705236264
297 9 2.4252981824765447
297 49 -4.360624371926221E-1
297 50 3.78485802672927
297 188 -1.4003222691877488
297 189 -1.9316196209714325
297 190 7.96913156470918E-1
297 281 -6.495790320687651E-1
297 297 2.850615240304529E1
297 298 -2.6700577909091523
297 299 1.7811679202520525
297 300 3.902628620266869
297 301 -2.8922526803016885E-1
297 302 -3.643337909425062E-1
297 303 -1.4775276843297487
297 304 7.252877052227911E-1
297 305 -3.420524235786762
297 306 -7.766696334002839
297 338 -4.3316930737406745
297 365 -7.807382940967399E-1
297 369 1.8406431991135923
297 370 6.074355906701168E-1
297 390 -4.4837581543175435
297 391 -1.1277814692457315
297 393 -5.421672731417511
297 394 2.3910180142054527
297 580 -2.939539803488514
298 5 4.5657091252766896E-1
298 6 -2.2941989282579642E-1
298 7 2.6566917751372265E-2
298 8 -3.4586019243228877E-1
298 9 1.7882863672531724E-1
298 49 2.4415270009133647
298 50 -1.4101642781235629E1
298 188 1.3960836427104308
298 189 1.0066865394624673
298 190 -3.7605662581908333E-1
298 281 -2.9344850605192256
298 297 -2.6700577909091523
298 298 2.9272637935114716E1
298 299 -3.4598921445034043
298 300 -3.64333790942506E-1
298 301 -2.812127419932815
298 302 2.4091089172079165
298 303 -3.4205242357867633
298 304 3.706004190194509E-1
298 305 -1.6614546311365863
298 306 3.78485802672927
298 338 1.2182473900492887
298 365 -5.741744603177633
298 369 3.9331584556191315
298 370 -5.957191300446931E-1
298 390 -1.5431126502754111
298 391 -6.6654454736309985
298 393 1.4881286883294624
298 394 -2.5093370532290864
298 580 1.4482099942412057
299 8 3.658568370102858E-1
299 9 -3.9696328906382045E-1
299 10 3.825423588008307E-1
299 281 -1.8363827824761736E-1
299 297 1.7811679202520525
299 298 -3.4598921445034043
299 299 2.092645015401144E1
299 300 2.2818743073692276
299 301 -2.4396714343904877
299 302 -7.135421729000424
299 303 -2.281874307369227
299 304 2.4396714343904877
299 305 -5.744628684477471
299 327 -2.000822504571927
299 328 -1.8653708323274945
299 335 -2.057958217667759E-1
299 336 3.147044745881257E-1
299 337 7.656972777254084E-2
299 338 -2.1910003826160873E-2
299 365 2.078386142895648
299 370 2.1676603194854516E-1
299 393 -3.0103878589830624E-1
299 394 -7.803183218848982E-1
299 560 -4.107914373966082E-1
299 561 -2.527542176707685E-1
299 579 -3.446366505999398
299 580 6.326890935560436E-2
300 8 -6.740232743277859
300 9 -6.7841687181188E-1
300 10 -2.6391264701201362
300 11 1.8359929808842121
300 19 1.9416769583228273
300 20 1.8384309696262835
300 21 -1.8344429448872388
300 22 -1.2396426464573649E1
300 23 -1.5755688876206875E-2
300 30 -6.846378695977379E-1
300 31 -2.6115722172163793
300 42 2.0047469278293404
300 43 1.8151258378310375
300 48 2.306043677749053
300 49 -4.816920064991477
300 50 -3.4036908806225896E-4
300 278 -6.764801872024029
300 279 4.228191388182312
300 280 -8.941771753351193E-1
300 281 -4.218073643808525
300 282 3.902628620266868
300 283 -2.8922526803016846E-1
300 284 3.643337909425054E-1
300 285 -2.3920826750974586
300 286 -6.114129614989745E-1
300 287 -3.246468865756809
300 291 -3.1533796482859695
300 292 -1.7267227797772136E-1
300 293 -2.281874307369227
300 297 3.902628620266869
300 298 -3.64333790942506E-1
300 299 2.2818743073692276
300 300 6.3221944955969505E1
300 301 -1.0873946718945668
300 302 5.612171188533202E-3
300 303 -1.2700227108269075E1
300 304 7.419896444214334
300 305 1.1102230246251565E-16
300 306 -1.1060169818925875E1
300 327 -2.4701964648755985
300 328 -6.5884554359418E-1
300 338 -3.1533796482859717
300 339 -1.348393978443963
300 340 -1.3008046310487935
300 341 4.771534936216154E-3
300 365 -2.892252680301682E-1
300 551 -3.0674689408594982E-2
300 560 -6.575422064338686E-2
300 561 9.027776229069762E-1
300 579 3.2380825420423163
300 580 -1.726722779777221E-1
300 583 -7.5436369732594475
300 584 -2.520840312915336
300 585 -6.169552388605978E-3
301 8 -6.78416871811878E-1
301 9 -4.346380287370627
301 10 -6.575422064338571E-2
301 11 -2.498381594071404
301 19 1.8384309696262817
301 20 5.899428494145221E-1
301 21 2.5025621529287996
301 22 2.3060436777490545
301 23 1.0984988084221013E-2
301 30 -4.375434481399375
301 31 -3.06746894085954E-2
301 42 1.8151258378310375
301 43 7.924243466804245E-1
301 48 -5.219190175868815
301 49 -1.1452283364862202E1
301 50 2.7334115719984675E-4
301 278 -6.84637869597736E-1
301 279 1.2868952371429563
301 280 -3.2601689266440212
301 281 -1.281604609421715
301 282 -2.8922526803016874E-1
301 283 2.0177943392749226E-1
301 284 2.812127419932815
301 285 -6.114129614989763E-1
301 286 4.061689826567728E-1
301 287 -7.207671907861695E-1
301 291 -1.726722779777207E-1
301 292 -3.1781785893203662
301 293 2.439671434390486
301 297 -2.8922526803016885E-1
301 298 -2.812127419932815
301 299 -2.4396714343904877
301 300 -1.0873946718945668
301 301 7.322521185553342E1
301 302 -7.7327727010984E-2
301 303 7.419896444214334
301 304 -1.9634727241538336E1
301 305 2.7755575615628914E-16
301 306 -4.816920064991477
301 327 -6.588455435941818E-1
301 328 2.5355771563531626E-1
301 338 -1.7267227797772117E-1
301 339 -1.3008046310487922
301 340 4.600239398312296
301 341 -3.0999995588969237E-2
301 365 2.017794339274912E-1
301 551 -2.698860252197463
301 560 -2.8436779610734932
301 561 3.3188961866596296
301 579 7.708812912280845E-1
301 580 -3.178178589320368
301 583 -2.520840312915336
301 584 -2.3344193073136676E1
301 585 -2.1243153677626338E-2
302 8 -4.218073643808525
302 9 -1.2816046094217157
302 10 9.027776229069748E-1
302 11 8.472241592260001E-1
302 19 -1.834442944887238
302 20 2.5025621529288
302 21 7.395867224421132E-1
302 22 -1.5755688876207045E-2
302 23 -3.5013483764219764
302 30 1.2868952371429567
302 31 -8.941771753351182E-1
302 42 1.8359929808842113
302 43 -2.498381594071404
302 48 1.0984988084220703E-2
302 49 2.733411571994304E-4
302 50 -6.033400880788497
302 278 4.228191388182314
302 279 -8.444683241747793
302 280 -7.147718806983371
302 281 -8.418606886619205
302 282 3.6433379094250545E-1
302 283 2.812127419932815
302 284 2.409108917207915
302 285 -3.246468865756808
302 286 -7.207671907861697E-1
302 287 -3.181067321918105
302 291 -2.2818743073692285
302 292 2.4396714343904864
302 293 -7.13542172900042
302 297 -3.643337909425062E-1
302 298 2.4091089172079165
302 299 -7.135421729000424
302 300 5.612171188533202E-3
302 301 -7.7327727010984E-2
302 302 6.410476424156067E1
302 303 -2.7755575615628914E-17
302 304 1.3877787807814457E-16
302 305 -7.756999559314025
302 306 -3.403690880626753E-4
302 327 3.2380825420423163
302 328 7.708812912280847E-1
302 338 2.281874307369228
302 339 4.771534936216071E-3
302 340 -3.0999995588969098E-2
302 341 4.913584251381722
302 365 -2.812127419932815
302 551 -3.26016892664402
302 560 3.3188961866596287
302 561 -7.126205340312488
302 579 -3.246450633013671
302 580 -2.4396714343904877
302 583 -6.169552388605828E-3
302 584 -2.1243153677627538E-2
302 585 -6.296052703906359
303 49 -1.3887005310014806
303 50 -5.828670879282072E-16
303 282 -1.477527684329752
303 283 7.252877052227908E-1
303 284 3.420524235786765
303 285 2.7410156602203792
303 286 -7.758084107804689E-1
303 287 -1.6823048349766312E-1
303 288 -8.901801485929521
303 289 -1.9593818057682333E-1
303 290 -5.623929374908988
303 291 -1.9986405171051866
303 292 1.726722779777214E-1
303 293 2.281874307369227
303 294 -4.041145776763976
303 295 -2.053738034046918E-16
303 296 -1.1749008584553818E-15
303 297 -1.4775276843297487
303 298 -3.4205242357867633
303 299 -2.281874307369227
303 300 -1.2700227108269075E1
303 301 7.419896444214334
303 302 -2.7755575615628914E-17
303 303 6.797624535307409E1
303 304 -3.9892404502860925
303 305 4.2498430560896046E-16
303 306 -7.182364782474913
303 327 2.7410156602203797
303 328 -7.758084107804688E-1
303 335 -8.901801485929521
303 336 -1.95938180576824E-1
303 337 5.623929374908987
303 338 -1.9986405171051866
303 339 -9.91352386330712
303 340 -3.3101217809121994
303 341 -7.216449660063518E-16
303 361 1.9344093294661595
303 364 -2.9194634249786535
303 365 7.252877052227908E-1
303 367 2.379146622274526
303 369 -3.36420071778702
303 370 9.331814615110079E-17
303 374 3.385847725323989
303 378 6.827662576734854E-1
303 379 -1.0842134755000556
303 381 -1.4974232942293244
303 382 1.1739747907507168
303 386 -1.8448843227830034
303 387 1.0842134755000556
303 390 1.0302272862271618
303 391 -1.173974790750717
303 393 -4.041145776763976
303 394 5.418088108115653E-16
303 396 -9.194615918095181
303 397 5.551115123125783E-17
303 579 1.6823048349766345E-1
303 580 1.726722779777216E-1
304 49 1.5139597135323253
304 50 8.881784197001252E-16
304 282 7.25287705222791E-1
304 283 1.1518087950913372
304 284 -3.7060041901945145E-1
304 285 -7.758084107804676E-1
304 286 -6.951759974404601E-1
304 287 -3.490888822156285
304 288 -1.9593818057682316E-1
304 289 -5.645656287795508
304 290 -9.540191044665437E-2
304 291 1.7267227797772056E-1
304 292 -1.97384157607079
304 293 -2.4396714343904864
304 294 1.0063004835064083E-16
304 295 -4.041145776763977
304 296 -1.9372904826772802E-15
304 297 7.252877052227911E-1
304 298 3.706004190194509E-1
304 299 2.4396714343904877
304 300 7.419896444214334
304 301 -1.9634727241538336E1
304 302 1.3877787807814457E-16
304 303 -3.9892404502860925
304 304 6.951976601761064E1
304 305 2.0945806391314646E-15
304 306 -1.3887005310014806
304 327 -7.758084107804678E-1
304 328 -6.951759974404625E-1
304 335 -1.9593818057682383E-1
304 336 -5.645656287795506
304 337 9.540191044665484E-2
304 338 1.72672277977721E-1
304 339 -3.3101217809122008
304 340 -7.762906675125393
304 341 4.49293380277993E-16
304 361 -2.6649563618591974
304 364 -7.581193807015345
304 365 1.1518087950913414
304 367 -8.7947433100575
304 369 -1.451406858817049
304 370 -4.041145776763975
304 374 -7.357697907713424E-1
304 378 1.9344093294661575
304 379 3.083540083802059
304 381 -2.919463424978654
304 382 3.3130225022108175
304 386 2.379146622274524
304 387 -3.08354008380206
304 390 -3.3642007177870203
304 391 -3.3130225022108184
304 393 1.8517435561556243E-16
304 394 2.3927469232326516E-16
304 396 3.385847725323992
304 397 -9.454242944073599E-17
304 579 3.4908888221562835
304 580 -1.97384157607079
305 49 9.43689570931383E-16
305 50 1.6767521852757041
305 282 3.420524235786764
305 283 -3.706004190194514E-1
305 284 -1.6614546311365903
305 285 -1.6823048349766367E-1
305 286 -3.4908888221562844
305 287 3.4659157172222793E-1
305 288 -5.623929374908989
305 289 -9.54019104466548E-2
305 290 -1.1679146051914998E1
305 291 2.281874307369228
305 292 -2.4396714343904873
305 293 -5.744628684477471
305 294 -1.5866511513903319E-15
305 295 -2.468747367189584E-15
305 296 -1.0102864441909942E1
305 297 -3.420524235786762
305 298 -1.6614546311365863
305 299 -5.744628684477471
305 300 1.1102230246251565E-16
305 301 2.7755575615628914E-16
305 302 -7.756999559314025
305 303 4.2498430560896046E-16
305 304 2.0945806391314646E-15
305 305 6.946871114986455E1
305 306 -8.326672684688674E-16
305 327 1.6823048349766312E-1
305 328 3.4908888221562835
305 335 5.62392937490899
305 336 9.540191044665533E-2
305 337 -1.1679146051914994E1
305 338 -2.281874307369227
305 339 -7.771561172376096E-16
305 340 1.4137996329210978E-16
305 341 -2.6963667011474493
305 361 3.0835400838020592
305 364 3.313022502210819
305 365 3.706004190194512E-1
305 367 -3.0835400838020606
305 369 -3.3130225022108197
305 370 7.701586496529352E-16
305 374 2.0252896582029223E-16
305 378 -1.084213475500055
305 379 -7.697011597499642E-1
305 381 1.1739747907507188
305 382 -5.920060080182163E-1
305 386 1.0842134755000543
305 387 -3.243254739365619
305 390 -1.1739747907507174
305 391 1.881547571597429
305 393 6.039713127933296E-16
305 394 -1.0102864441909938E1
305 396 -5.551115123125783E-17
305 397 -2.856782637088787E-1
305 579 3.4659157172222765E-1
305 580 2.4396714343904877
306 5 -2.8045778912553785
306 6 -1.380009768601441E-3
306 7 -3.3426497316334514
306 8 -1.1251986162786962
306 9 -1.4545867332705968
306 12 1.7762102682129914
306 13 1.8576582714841654
306 14 -2.391725343396961
306 22 -2.878085233382597
306 23 1.1771343722708116E-2
306 24 -2.056098873174777E1
306 25 -8.259335867023182E-2
306 27 -3.2444093381708328
306 28 -8.928660237082355E-2
306 29 3.5384580392787868
306 30 -1.458416705217028
306 32 -3.3164482102210022
306 33 1.4027147510335511
306 34 1.9609052274323433
306 35 2.3652168438243013
306 48 2.000387335774166
306 49 6.726255660047173
306 50 -1.0013372871916193E-1
306 51 -2.731756439767729
306 180 -2.3439021383233998
306 181 1.6482889426474223
306 188 -4.496603123577528
306 189 -3.3911616504970166
306 190 -1.6442399534462502
306 278 -1.141838135458408
306 279 -2.157077018714404
306 281 2.1550243341953057
306 282 -7.766696334002839
306 283 -4.360624371926234E-1
306 284 -3.784858026729272
306 297 -7.766696334002839
306 298 3.78485802672927
306 300 -1.1060169818925875E1
306 301 -4.816920064991477
306 302 -3.403690880626753E-4
306 303 -7.182364782474913
306 304 -1.3887005310014806
306 305 -8.326672684688674E-16
306 306 6.868961022260213E1
306 364 3.375518137205778
306 365 -4.360624371926223E-1
306 369 3.600057189547374
306 381 -9.370829294845915E-1
306 382 -1.52648983546641
306 390 1.440078165236998
306 391 1.5264898354664116
307 269 -6.238464231507193E-1
307 307 1.1709973998974585E1
307 308 1.4541775446383587E-1
307 309 -4.577801941281816
307 310 5.32605225284374E-1
307 311 1.284607305605085E-1
307 312 -4.47801877219438E-1
307 316 -1.7214514804526502
307 317 4.6788481736500276E-1
307 318 8.628646171472258E-1
307 319 -7.824235106260987
307 320 2.817767811994867
307 324 2.022571772828752E-1
307 325 -5.75674341932587E-1
307 326 2.04783933868188E-1
307 332 -3.613194341887864
307 333 5.490885839128752E-1
307 334 1.5490936884362139
307 425 7.140445270596677E-1
307 426 -9.133112121891604E-2
307 427 -4.0890623294524053E-1
308 269 -7.578857816543913
308 307 1.4541775446383587E-1
308 308 1.1110401500025324E1
308 309 -7.067325448399397E-1
308 310 -1.2153926944107488E-1
308 311 -3.578453217827491E-1
308 312 2.7192514184243777E-1
308 316 2.8038481736302845E-1
308 317 -1.9054844477412283
308 318 -1.427606994203086
308 319 -3.738464231491359E-1
308 320 1.903475992262794
308 324 -5.75674341932587E-1
308 325 8.100398763072326E-1
308 326 5.149238542586904E-1
308 332 5.490885839128752E-1
308 333 -2.1407417805863616
308 334 -4.9114367162636785E-1
308 425 9.616887878305823E-2
308 426 6.2487990321695136E-2
308 427 -6.484177769452848E-2
309 269 1.903475992262794
309 307 -4.577801941281816
309 308 -7.067325448399397E-1
309 309 2.162486398338247E1
309 310 -4.45055265629443E-1
309 311 -2.719251416521568E-1
309 312 1.2985672559417376
309 316 4.4412236235886415E-2
309 317 -1.427606994203086
309 318 -5.7186518635113135
309 319 1.924910669112237
309 320 -1.7673890215820798E1
309 324 1.0948944651608234
309 325 1.0587741377532849
309 326 2.7422242923224003
309 332 2.4445104913709277
309 333 -1.009877893864176
309 334 -3.9836941714930476
309 425 -4.858706549686157E-1
309 426 4.538924445432798E-1
309 427 1.7105807191785587
310 307 5.32605225284374E-1
310 308 -1.2153926944107488E-1
310 309 -4.45055265629443E-1
310 310 1.0648788273704447E1
310 311 2.6401758008454784E-1
310 312 -4.300670743725112
310 313 -5.523110719965827
310 314 4.05384817362644E-1
310 315 2.5741741409824876
310 316 -1.5333134007531082
310 317 -5.06731021702019E-1
310 318 6.513299427918025E-1
310 329 -5.787196505495737E-1
310 330 9.056393914730586E-1
310 331 2.4871847469132607E-1
310 332 -3.8217075894012034
310 333 -9.77521418584399E-1
310 334 1.6707693176249823
310 528 2.7545786168089215E-1
310 529 3.0749920807242592E-2
310 530 -3.992658667360439E-1
311 307 1.284607305605085E-1
311 308 -3.578453217827491E-1
311 309 -2.719251416521568E-1
311 310 2.6401758008454784E-1
311 311 1.0221819481122592E1
311 312 -2.0479047415300056E-1
311 313 1.5538481736106036E-1
311 314 -4.989832283414494
311 315 -1.4276069941970941
311 316 -1.942310217008325E-1
311 317 -2.199911446440582
311 318 1.784508742741843
311 329 9.056393914730579E-1
311 330 3.272052893917021E-1
311 331 -5.850557762359636E-1
311 332 -9.77521418584399E-1
311 333 -2.1317205419729057
311 334 6.314925760980319E-1
311 528 -2.8175007919394296E-1
311 529 -8.697151769035629E-1
311 530 7.337706739834005E-2
312 307 -4.47801877219438E-1
312 308 2.7192514184243777E-1
312 309 1.2985672559417376
312 310 -4.300670743725112
312 311 -2.0479047415300056E-1
312 312 1.7670137709418107E1
312 313 1.6813169981600893
312 314 -1.4276069941970964
312 315 -1.271221004885134E1
312 316 -1.6712243818890482E-1
312 317 1.7845087427418436
312 318 -5.202741940708329
312 329 1.1443222291037198
312 330 -1.1289060597305585
312 331 1.4643435591890166
312 332 2.643309050441634
312 333 1.2185091144957862
312 334 -3.3591152700344287
312 528 -5.533532185719884E-1
312 529 -5.136394709994123E-1
312 530 8.410187350452389E-1
313 259 2.6641309533448865E-1
313 260 -5.793644739362565E-1
313 261 9.225930081727779E-2
313 310 -5.523110719965827
313 311 1.5538481736106036E-1
313 312 1.6813169981600893
313 313 2.7486440206138944E1
313 314 -1.4772192258764234
313 315 4.855153323504279E-1
313 316 -1.8644397012776492
313 317 5.40201349344779E-1
313 318 -2.582142941569804E-2
313 321 -2.335237847683942
313 322 5.191923411581726E-1
313 323 -4.6998419305216443E-1
313 329 -4.477081783755627
313 330 1.2712418045222715
313 331 -3.528536228701694
313 332 2.058059909997063
313 333 -1.6890269001366818
313 334 -1.5653886918374007
313 339 -5.723071775416232
313 340 -1.619047693414696
313 341 2.7491379969362937
313 528 -2.8341556276374544
313 529 4.3579108346233175E-1
313 530 -1.6074312953750586E-1
313 532 6.838604706948161E-1
313 533 -4.20441037019368E-1
313 534 5.860307603663176E-1
313 541 -8.347956227719182
313 542 8.707702902279104E-1
313 543 -1.6428445675927064
313 548 6.10280001290596E-1
313 549 1.9925176443069001
313 550 1.7990578515067623
314 259 -5.897811406039953E-1
314 260 1.4507191657824117
314 261 -4.693573952243463E-2
314 310 4.05384817362644E-1
314 311 -4.989832283414494
314 312 -1.4276069941970964
314 313 -1.4772192258764234
314 314 3.210978982072091E1
314 315 -1.6089882472010366
314 316 1.0714513493233977
314 317 -5.792676858619951
314 318 7.19353207884518E-1
314 321 1.019192341160814
314 322 -4.096593573571174
314 323 2.1862319583520167
314 329 1.2712418045222713
314 330 -9.225479564709359E-1
314 331 1.378502647831495
314 332 -1.689026900136682
314 333 1.8309807368609237
314 334 -2.1585680162718828
314 339 -1.6190476934146958
314 340 -3.4218209314644312
314 341 1.7704153552133004
314 528 6.0791083461538775E-2
314 529 -5.220887493741309
314 530 2.7901170883063866
314 532 -9.412743703302471E-1
314 533 -1.4566513704345796
314 534 -7.020834514988095E-1
314 541 4.9577029022447927E-1
314 542 -9.229231493322995
314 543 -1.6132521562253466
314 548 1.9925176443068988
314 549 -2.6124776232437824E-1
314 550 -1.2871856526711098
315 259 -4.3732403251284524E-1
315 260 -4.693573952243524E-2
315 261 -2.5773789305218537
315 310 2.5741741409824876
315 311 -1.4276069941970941
315 312 -1.271221004885134E1
315 313 4.855153323504279E-1
315 314 -1.6089882472010366
315 315 4.223533651848007E1
315 316 4.13809514978242E-2
315 317 7.193532078845171E-1
315 318 -7.501903949328289E-1
315 321 -9.908175263459031E-1
315 322 2.1862319583520176
315 323 -4.140497116607685
315 329 -3.528536228701692
315 330 1.378502647831496
315 331 -4.278458706963727
315 332 -1.5653886918374003
315 333 -2.158568016271883
315 334 3.7227373849654315
315 339 2.7491379969362932
315 340 1.7704153552133015
315 341 -5.8600568735501115
315 528 5.833044895413104E-1
315 529 2.7901170883063857
315 530 -5.420832445464638
315 532 4.5317361754178404E-1
315 533 -7.020834514988076E-1
315 534 2.2145185784616452
315 541 -2.1636779009590494
315 542 -1.6132521562253486
315 543 -1.627099784899812E1
315 548 1.799057851506762
315 549 -1.2871856526711112
315 550 3.8380298839831557
316 269 -1.0345939801797635
316 275 -6.573088090996852
316 276 -2.082202337275214
316 277 2.316676078768765
316 307 -1.7214514804526502
316 308 2.8038481736302845E-1
316 309 4.4412236235886415E-2
316 310 -1.5333134007531082
316 311 -1.942310217008325E-1
316 312 -1.6712243818890482E-1
316 313 -1.8644397012776492
316 314 1.0714513493233977
316 315 4.13809514978242E-2
316 316 2.229690049370084E1
316 317 2.5177629306474403
316 318 1.498631053917388E-1
316 319 4.646710093685528E-1
316 320 -6.865851064185567E-1
316 321 -3.1355801857747907
316 322 -3.596166141959081E-1
316 323 -1.2699762953196978
316 332 -8.233654113405978
316 333 -1.1543789231346613
316 334 -2.487107499868272
316 339 2.999554695916388E-1
316 340 9.554237791525129E-1
316 341 2.058458967901217
317 269 -1.5431729044311746
317 275 -1.7384523372985716
317 276 -8.084471597594968
317 277 3.023994419130049
317 307 4.6788481736500276E-1
317 308 -1.9054844477412283
317 309 -1.427606994203086
317 310 -5.06731021702019E-1
317 311 -2.199911446440582
317 312 1.7845087427418436
317 313 5.40201349344779E-1
317 314 -5.792676858619951
317 315 7.193532078845171E-1
317 316 2.5177629306474403
317 317 2.5890792669863455E1
317 318 -2.359573314753681
317 319 -4.8874543354556327E-1
317 320 -1.0557549802633276E-1
317 321 -5.929651608289221E-1
317 322 -2.691886311201291
317 323 -1.7542604941116953
317 332 -1.1543789231346606
317 333 -6.192880438160171
317 334 6.913905841587403E-1
317 339 9.554237791525149E-1
317 340 2.519691334325914
317 341 -5.722306528203547E-1
318 269 -1.0557549802633248E-1
318 275 1.5654260787709477
318 276 3.023994419130049
318 277 -8.383263893928866
318 307 8.628646171472258E-1
318 308 -1.427606994203086
318 309 -5.7186518635113135
318 310 6.513299427918025E-1
318 311 1.784508742741843
318 312 -5.202741940708329
318 313 -2.582142941569804E-2
318 314 7.19353207884518E-1
318 315 -7.501903949328289E-1
318 316 1.498631053917388E-1
318 317 -2.359573314753681
318 318 2.8720770473797636E1
318 319 -7.148540124200894E-1
318 320 1.7718213229248518
318 321 -2.0601597702988728
318 322 -1.754260494111695
318 323 -6.938035779566265
318 332 -2.4871074998682734
318 333 6.913905841587373E-1
318 334 -5.1863067277929495
318 339 2.0584589679012186
318 340 -5.722306528203529E-1
318 341 1.6865988037180686
319 250 -1.1981416346872817
319 269 -1.732494749198695
319 274 5.39703111260263E-1
319 275 -9.204415530220526
319 276 2.1198222026963034
319 277 3.684613435726208
319 307 -7.824235106260987
319 308 -3.738464231491359E-1
319 309 1.924910669112237
319 316 4.646710093685528E-1
319 317 -4.8874543354556327E-1
319 318 -7.148540124200894E-1
319 319 3.0926556588862894E1
319 320 -3.267523185123969
319 324 -1.2253015198236952E1
319 325 3.2485277825834047E-1
319 326 -1.3891996450958444
319 332 2.372087886436192
319 333 1.6448558886653961
319 334 -1.1543331558737164
319 374 -1.590153772321874
319 383 -2.391848618766065
319 396 1.0490737959739935
319 397 2.0169732942901315
319 425 -1.7632279019465833
319 426 2.179437070743411E-1
319 427 -3.0483273257002064E-2
319 428 -1.3756469252105152
319 429 -6.619373097393773E-1
319 430 1.2803750732932595E-1
320 250 -4.638339989755467
320 269 1.1662896205128312
320 274 2.1198423749253035
320 275 2.8797625858903215
320 276 -2.641593634626013
320 277 -1.3077796099952419E1
320 307 2.817767811994867
320 308 1.903475992262794
320 309 -1.7673890215820798E1
320 316 -6.865851064185567E-1
320 317 -1.0557549802633276E-1
320 318 1.7718213229248518
320 319 -3.267523185123969
320 320 4.36143803554424E1
320 324 -1.3891996450958437
320 325 -3.76808434112958E-1
320 326 -1.127555601502343E1
320 332 -1.1543331558737173
320 333 -4.872237043407277E-2
320 334 5.147111319585564
320 374 3.3201302548224043E-1
320 383 -1.9704581597099118
320 396 2.0169732942901306
320 397 1.9503876872352854
320 425 7.13564345764095E-1
320 426 -1.3616773333988694
320 427 -5.503063981534917
320 428 4.003121428258451E-2
320 429 -9.872437425849228E-1
320 430 -3.150543831010671E-1
321 256 -2.204304235571068
321 257 -2.557036049154203E-1
321 258 1.405543985984321
321 259 -2.0292263291204966
321 260 7.010569482921704E-1
321 261 7.078919400567305E-1
321 275 -6.820407812062299E-1
321 276 -1.3655836752968427
321 277 1.3740024361284686E-1
321 313 -2.335237847683942
321 314 1.019192341160814
321 315 -9.908175263459031E-1
321 316 -3.1355801857747907
321 317 -5.929651608289221E-1
321 318 -2.0601597702988728
321 321 1.5627635547626241E1
321 322 4.9400315158819863E-1
321 323 8.001411269908798E-1
321 339 -5.241246168269711
321 340 2.0696251620481343E-15
321 341 -3.090628438522355E-15
322 256 -5.1552151545395775E-2
322 257 -2.021588801612175
322 258 1.5734103093701557
322 259 1.8022361495664269E-1
322 260 -4.078474058484547
322 261 -2.2453234345504214
322 275 -7.822503419617137E-1
322 276 -2.820538046865252
322 277 4.904236697655301E-2
322 313 5.191923411581726E-1
322 314 -4.096593573571174
322 315 2.1862319583520176
322 316 -3.596166141959081E-1
322 317 -2.691886311201291
322 318 -1.754260494111695
322 321 4.9400315158819863E-1
322 322 1.7805579259042325E1
322 323 1.9089929396339028E-1
322 339 3.616081113277556E-15
322 340 -2.0964984673078813
322 341 3.668306804339567E-16
323 256 6.153605110414327E-1
323 257 1.5734103093701586
323 258 -6.294142966315202
323 259 1.87058606692392E-1
323 260 -2.2453234345504223
323 261 -3.947022718628386
323 275 1.374002436471606E-1
323 276 4.90423669765514E-2
323 277 1.1578706866515396
323 313 -4.6998419305216443E-1
323 314 2.1862319583520167
323 315 -4.140497116607685
323 316 -1.2699762953196978
323 317 -1.7542604941116953
323 318 -6.938035779566265
323 321 8.001411269908798E-1
323 322 1.9089929396339028E-1
323 323 2.225832636177388E1
323 339 -3.543715663586459E-15
323 340 9.313560564798269E-16
323 341 -2.0964984673078817
324 269 3.248527782583387E-1
324 275 2.178475937492115E-1
324 276 -1.7606332661970068
324 277 -3.0589884915402585
324 307 2.022571772828752E-1
324 308 -5.75674341932587E-1
324 309 1.0948944651608234
324 319 -1.2253015198236952E1
324 320 -1.3891996450958437
324 324 3.709549375684591E1
324 325 1.1482600273013135
324 326 -2.2357782754312483
324 332 -6.728353013112123
324 333 -2.113290025241907
324 334 1.3612877720100713
324 335 -1.0481608874758656E1
324 336 1.7324099235785497
324 337 3.368909876509225E-1
324 339 4.206605105945075
324 340 1.687139540424257
324 341 7.251856957981092E-1
324 367 -1.8191357605604863
324 374 -5.296293046996466E-1
324 386 -2.4494049047736604
324 387 -5.543583352044958E-1
324 396 -6.965833430600605
324 397 2.911094482355623
324 425 -2.8986800113688025
324 426 3.5840496592022175E-1
324 427 2.2107717947985117
324 428 8.434540569780203E-1
324 429 1.7993192752875777
324 430 -1.5275526521492462
324 448 -7.887622579502963E-1
324 449 -2.5202381213862396E-1
324 450 1.2575220164703038E-1
325 269 -9.134512031468876
325 275 -1.7606332661970072
325 276 2.3736627285543963
325 277 -1.1796187677544852
325 307 -5.75674341932587E-1
325 308 8.100398763072326E-1
325 309 1.0587741377532849
325 319 3.2485277825834047E-1
325 320 -3.76808434112958E-1
325 324 1.1482600273013135
325 325 3.331817832136134E1
325 326 -3.791951933894187
325 332 -2.113290025241907
325 333 -1.0940130024015822E1
325 334 3.744529731144649
325 335 1.7324099235785488
325 336 -4.044000040204574
325 337 -1.7326443465226588E-1
325 339 1.6871395404242573
325 340 1.82885910291845
325 341 -3.1268932042273145
325 367 -8.282548970037584E-1
325 374 -7.664119796676283
325 386 -1.8191357605604863
325 387 1.0671182304127114E-2
325 396 -5.296293046996468E-1
325 397 3.9589050050538472
325 425 3.5840496592022186E-1
325 426 -1.7856583730873634
325 427 -9.181654267834582E-1
325 428 1.7993192752875768
325 429 1.1065285640886502
325 430 1.8336364336603892
325 448 -2.5202381213862346E-1
325 449 -5.040593430773386
325 450 -1.0398142884916277
326 269 -3.7680843411295584E-1
326 275 -3.0589884915402568
326 276 -1.1796187677544876
326 277 4.8153913762193856E-1
326 307 2.04783933868188E-1
326 308 5.149238542586904E-1
326 309 2.7422242923224003
326 319 -1.3891996450958444
326 320 -1.127555601502343E1
326 324 -2.2357782754312483
326 325 -3.791951933894187
326 326 3.5829265028928994E1
326 332 1.3910158843818001
326 333 2.713889290571044
326 334 -9.383696647046545
326 335 1.2682272366730558
326 336 -6.555516774577074E-1
326 337 -4.052166728925782
326 339 7.251856957981083E-1
326 340 -3.126893204227315
326 341 1.942163215482581
326 367 5.664244908150278E-1
326 374 3.9589050050538477
326 386 3.0796316061566326E-1
326 387 2.1333598142476523E-1
326 396 2.9110944823556224
326 397 -1.5297136406193239E1
326 425 1.318722186606622
326 426 -4.432782947207533E-1
326 427 -3.4706056996068306
326 428 -1.5275526521492468
326 429 1.8336364336603894
326 430 3.4808296149784
326 448 8.452648391753495E-2
326 449 -1.3676762191592307E-2
326 450 -1.2101957739632474
327 10 -7.509630412072934
327 299 -2.000822504571927
327 300 -2.4701964648755985
327 301 -6.588455435941818E-1
327 302 3.2380825420423163
327 303 2.7410156602203797
327 304 -7.758084107804678E-1
327 305 1.6823048349766312E-1
327 327 3.319501818352205E1
327 328 1.2320678926558698E-1
327 329 -1.6480814823246557
327 330 -1.9094610097120295
327 331 2.6151547044708134E-1
327 332 -3.340249513031023
327 333 1.524782088653834
327 334 7.580256364487205E-1
327 335 -4.488177233874515
327 336 2.169573415618361
327 337 9.245600684531623E-2
327 338 -5.2752830207812735
327 339 -9.364705894052252
327 340 -4.401705416817563E-1
327 341 -4.814279972252185
327 560 1.7305804748371398
327 561 -2.9506622441218076
327 562 -4.346097968948153
327 563 -6.25129767184059E-1
327 564 -3.190878927848484E-2
327 579 3.899459410406421
327 580 -2.9761838032292163
327 583 2.5063881462179793
327 584 1.837456307806788
327 585 1.3799039605368857
328 10 1.7305804748371416
328 299 -1.8653708323274945
328 300 -6.5884554359418E-1
328 301 2.5355771563531626E-1
328 302 7.708812912280847E-1
328 303 -7.758084107804688E-1
328 304 -6.951759974404625E-1
328 305 3.4908888221562835
328 327 1.2320678926558698E-1
328 328 3.4526166410576096E1
328 329 -1.909461009712029
328 330 -1.0165132626323388
328 331 7.998646406025198E-1
328 332 1.5247820886538335
328 333 -5.31784372371224E-1
328 334 -7.44649776904421E-1
328 335 2.1695734156183613
328 336 -8.707645203610948
328 337 -4.746431019122114E-1
328 338 -2.976183803229217
328 339 -4.4017054168175596E-1
328 340 -7.174733439900929
328 341 -1.1013157516381424
328 560 -2.614803112653987
328 561 9.381636375318474E-1
328 562 -6.251297671840603E-1
328 563 -1.0409260733574188E1
328 564 3.314648464624719E-1
328 579 9.521777817314381E-1
328 580 -4.688110759208966
328 583 1.8374563078067871
328 584 1.0583027551816264
328 585 -3.0974615569303756
329 310 -5.787196505495737E-1
329 311 9.056393914730579E-1
329 312 1.1443222291037198
329 313 -4.477081783755627
329 314 1.2712418045222713
329 315 -3.528536228701692
329 327 -1.6480814823246557
329 328 -1.909461009712029
329 329 2.459002593437872E1
329 330 3.9111839671191023E-1
329 331 -8.032918911457138E-1
329 332 -9.454108340210445E-1
329 333 7.97589881912918E-1
329 334 -8.142157038545472E-2
329 339 -2.218310686589966
329 340 -8.711590164753054E-1
329 341 1.8989802548860584
329 528 -4.019259362096708
329 529 -1.8290549043990554
329 530 7.322568083173697E-2
329 544 -6.42847581535029E-1
329 545 -1.2673664231737785
329 546 2.2387031869220753E-1
329 548 -3.440261092218521
329 549 1.9490487898686232E-1
329 550 -8.91099282442867E-3
329 562 -6.62753781661837
329 563 1.0204246582703693
329 564 1.8453088528029933
329 565 7.48435533077213E-3
329 566 1.2961223418827783
329 567 -1.8898217881109544E-1
329 579 -5.745644744483307E-1
330 310 9.056393914730586E-1
330 311 3.272052893917021E-1
330 312 -1.1289060597305585
330 313 1.2712418045222715
330 314 -9.225479564709359E-1
330 315 1.378502647831496
330 327 -1.9094610097120295
330 328 -1.0165132626323388
330 329 3.9111839671191023E-1
330 330 2.424542459875416E1
330 331 8.354248783908653E-1
330 332 7.975898819129175E-1
330 333 -5.3422092847006155
330 334 -1.1501514993074169E-1
330 339 -8.711590164753042E-1
330 340 -2.6640040013430593
330 341 3.7273080083097847
330 528 -1.8290549043990563
330 529 -2.3495748061878325
330 530 -1.967953982798096E-1
330 544 -1.2673664231737778
330 545 -3.0674202774141666
330 546 7.924280694313157E-2
330 548 1.9490487898686137E-1
330 549 -4.935359212391033
330 550 -4.577784963266778
330 562 1.020424658270369
330 563 -1.694726459283396
330 564 -2.145904315254838E-1
330 565 1.296122341882779
330 566 -2.580274627722483
330 567 1.188987371757031E-1
330 579 9.371492408239157E-2
331 310 2.4871847469132607E-1
331 311 -5.850557762359636E-1
331 312 1.4643435591890166
331 313 -3.528536228701694
331 314 1.378502647831495
331 315 -4.278458706963727
331 327 2.6151547044708134E-1
331 328 7.998646406025198E-1
331 329 -8.032918911457138E-1
331 330 8.354248783908653E-1
331 331 2.5649088438683577E1
331 332 -1.4494237957059497E-1
331 333 9.857385334459972E-1
331 334 -1.098652410175405
331 339 1.8989802548860593
331 340 3.727308008309787
331 341 -7.449606020253121
331 528 -8.236632181240371E-1
331 529 -5.641987059623034E-1
331 530 -1.412770942644793
331 544 -1.332725384623875E-1
331 545 -7.540905264000153E-1
331 546 -1.8244062832236246E-1
331 548 -8.910992824430232E-3
331 549 -4.5777849632667795
331 550 -1.044602995222861E1
331 562 2.861210614383866
331 563 -4.8201078155907634E-1
331 564 -3.1905737721967347
331 565 1.7219243442052556E-1
331 566 -7.636979551565248E-1
331 567 2.5375838866346045E-1
331 579 6.913420462486987E-1
332 269 1.6448558886653974
332 275 3.4494683018391137
332 276 1.5404653200210934
332 277 -1.7501701133790002
332 307 -3.613194341887864
332 308 5.490885839128752E-1
332 309 2.4445104913709277
332 310 -3.8217075894012034
332 311 -9.77521418584399E-1
332 312 2.643309050441634
332 313 2.058059909997063
332 314 -1.689026900136682
332 315 -1.5653886918374003
332 316 -8.233654113405978
332 317 -1.1543789231346606
332 318 -2.4871074998682734
332 319 2.372087886436192
332 320 -1.1543331558737173
332 324 -6.728353013112123
332 325 -2.113290025241907
332 326 1.3910158843818001
332 327 -3.340249513031023
332 328 1.5247820886538335
332 329 -9.454108340210445E-1
332 330 7.975898819129175E-1
332 331 -1.4494237957059497E-1
332 332 3.036287958172882E1
332 333 2.3361148723404486
332 334 -4.483858566153257
332 335 -3.1986882711652687
332 336 -1.8880697716288575
332 337 1.4379624109683586
332 339 -8.361238003976684
332 340 -5.706095967800602E-1
332 341 3.913244778259182
332 579 -2.4424220873965963E-1
333 269 2.2376052364733074
333 275 1.5404653200210952
333 276 2.619003550275773
333 277 1.2252396931153477
333 307 5.490885839128752E-1
333 308 -2.1407417805863616
333 309 -1.009877893864176
333 310 -9.77521418584399E-1
333 311 -2.1317205419729057
333 312 1.2185091144957862
333 313 -1.6890269001366818
333 314 1.8309807368609237
333 315 -2.158568016271883
333 316 -1.1543789231346613
333 317 -6.192880438160171
333 318 6.913905841587373E-1
333 319 1.6448558886653961
333 320 -4.872237043407277E-2
333 324 -2.113290025241907
333 325 -1.0940130024015822E1
333 326 2.713889290571044
333 327 1.524782088653834
333 328 -5.31784372371224E-1
333 329 7.97589881912918E-1
333 330 -5.3422092847006155
333 331 9.857385334459972E-1
333 332 2.3361148723404486
333 333 3.0659142951183153E1
333 334 -3.414141347470244
333 335 -1.8880697716288568
333 336 -1.7733862530048883
333 337 3.68348290860292E-1
333 339 -5.706095967800614E-1
333 340 -8.293879779981166
333 341 -2.7078000387826046E-1
333 579 -3.0102587472856923E-1
334 269 -4.8722370434074416E-2
334 275 -1.7501701133790026
334 276 1.2252396931153475
334 277 -9.966720496235331E-1
334 307 1.5490936884362139
334 308 -4.9114367162636785E-1
334 309 -3.9836941714930476
334 310 1.6707693176249823
334 311 6.314925760980319E-1
334 312 -3.3591152700344287
334 313 -1.5653886918374007
334 314 -2.1585680162718828
334 315 3.7227373849654315
334 316 -2.487107499868272
334 317 6.913905841587403E-1
334 318 -5.1863067277929495
334 319 -1.1543331558737164
334 320 5.147111319585564
334 324 1.3612877720100713
334 325 3.744529731144649
334 326 -9.383696647046545
334 327 7.580256364487205E-1
334 328 -7.44649776904421E-1
334 329 -8.142157038545472E-2
334 330 -1.1501514993074169E-1
334 331 -1.098652410175405
334 332 -4.483858566153257
334 333 -3.414141347470244
334 334 3.415864897236264E1
334 335 2.2698584047179304
334 336 9.503677519992214E-1
334 337 -1.6296038877986112
334 339 3.913244778259185
334 340 -2.707800038782592E-1
334 341 -1.748630124694138E1
334 579 9.554473399226193E-2
335 299 -2.057958217667759E-1
335 303 -8.901801485929521
335 304 -1.9593818057682383E-1
335 305 5.62392937490899
335 324 -1.0481608874758656E1
335 325 1.7324099235785488
335 326 1.2682272366730558
335 327 -4.488177233874515
335 328 2.1695734156183613
335 332 -3.1986882711652687
335 333 -1.8880697716288568
335 334 2.2698584047179304
335 335 3.403928695949706E1
335 336 3.012257073761253E-1
335 337 -3.2819086714034063
335 338 -2.67831703104756
335 339 8.452253294656625E-3
335 340 -1.557133395134955
335 341 -2.9510150296204376
335 367 -1.7805981080088924
335 370 -1.9378295338629616
335 374 1.753071575711779
335 386 -3.7932701981937864
335 387 2.4539200848094755E-1
335 393 -3.7313451795255794
335 394 -2.7802794808174736E-1
335 396 3.2254690617031625
335 397 -2.6729143452885498
335 579 -1.7745208620006087E-2
335 580 1.4032883669276752
336 299 3.147044745881257E-1
336 303 -1.95938180576824E-1
336 304 -5.645656287795506
336 305 9.540191044665533E-2
336 324 1.7324099235785497
336 325 -4.044000040204574
336 326 -6.555516774577074E-1
336 327 2.169573415618361
336 328 -8.707645203610948
336 332 -1.8880697716288575
336 333 -1.7733862530048883
336 334 9.503677519992214E-1
336 335 3.012257073761253E-1
336 336 3.0011530695481998E1
336 337 -2.405734064869364E-1
336 338 1.4032883669276746
336 339 -1.557133395134955
336 340 -7.244741770537007E-1
336 341 -2.481026442749357
336 367 -7.924463420617647
336 370 -1.8543684186500748
336 374 7.022502939175045E-1
336 386 -1.780598108008892
336 387 -5.093172898651203E-1
336 393 -1.937829533862961
336 394 -3.9485530702666677E-1
336 396 1.753071575711779
336 397 2.3856245323027045
336 579 5.352254542490804E-1
336 580 -3.9787188462168055E-2
337 299 7.656972777254084E-2
337 303 5.623929374908987
337 304 9.540191044665484E-2
337 305 -1.1679146051914994E1
337 324 3.368909876509225E-1
337 325 -1.7326443465226588E-1
337 326 -4.052166728925782
337 327 9.245600684531623E-2
337 328 -4.746431019122114E-1
337 332 1.4379624109683586
337 333 3.68348290860292E-1
337 334 -1.6296038877986112
337 335 -3.2819086714034063
337 336 -2.405734064869364E-1
337 337 2.7883306956531193E1
337 338 5.912229468597295E-1
337 339 -2.951015029620437
337 340 -2.4810264427493562
337 341 -1.7390819318118762
337 367 4.2510567259038934E-1
337 370 1.3272600632918385E-1
337 374 2.385624532302703
337 386 2.8026923360401657E-1
337 387 -3.44404278913105
337 393 5.431070854750619E-1
337 394 -7.627151347994751E-1
337 396 -2.6729143452885484
337 397 -7.514724436023855E-1
337 579 -3.90164771631956
337 580 -3.769902672845321E-2
338 8 -3.8511224599977885
338 9 9.757439788636056E-1
338 10 -3.341339025518348E-1
338 281 -5.757775375078094E-1
338 297 -4.3316930737406745
338 298 1.2182473900492887
338 299 -2.1910003826160873E-2
338 300 -3.1533796482859717
338 301 -1.7267227797772117E-1
338 302 2.281874307369228
338 303 -1.9986405171051866
338 304 1.72672277977721E-1
338 305 -2.281874307369227
338 327 -5.2752830207812735
338 328 -2.976183803229217
338 335 -2.67831703104756
338 336 1.4032883669276746
338 337 5.912229468597295E-1
338 338 2.246555042781526E1
338 365 -2.939539803488515
338 370 8.908925058899272E-1
338 393 -8.429807743049682E-1
338 394 -1.0341823803918127E-1
338 560 9.238567848252042E-1
338 561 1.4844412037709E-1
338 579 -1.2568086779129581
338 580 1.7219419702113206
339 246 4.304217290245132
339 247 -7.241960019262645E-1
339 256 -1.2701795757960788
339 257 1.155517997070323
339 258 -2.0146268311478575
339 259 -4.586781714996847
339 260 -9.544222064558184E-1
339 261 -1.633130472537562E-1
339 266 -2.330305365923359
339 267 -1.2943389862032142
339 268 -2.9975038818838673
339 270 1.9255024392175033
339 271 -8.89412126119535
339 272 -6.041265466869772E-1
339 273 -4.416151623550686
339 275 -1.0778835329821883E1
339 276 2.8311598148820307
339 277 1.1861930253818491E-1
339 285 -9.216163883664342
339 286 -4.2731930585020883E-1
339 287 4.7863941729940604
339 288 8.452253294658152E-3
339 289 -1.5571333951349553
339 290 2.9510150296204385
339 300 -1.348393978443963
339 301 -1.3008046310487922
339 302 4.771534936216071E-3
339 303 -9.91352386330712
339 304 -3.3101217809122008
339 305 -7.771561172376096E-16
339 313 -5.723071775416232
339 314 -1.6190476934146958
339 315 2.7491379969362932
339 316 2.999554695916388E-1
339 317 9.554237791525149E-1
339 318 2.0584589679012186
339 321 -5.241246168269711
339 322 3.616081113277556E-15
339 323 -3.543715663586459E-15
339 324 4.206605105945075
339 325 1.6871395404242573
339 326 7.251856957981083E-1
339 327 -9.364705894052252
339 328 -4.4017054168175596E-1
339 329 -2.218310686589966
339 330 -8.711590164753042E-1
339 331 1.8989802548860593
339 332 -8.361238003976684
339 333 -5.706095967800614E-1
339 334 3.913244778259185
339 335 8.452253294656625E-3
339 336 -1.557133395134955
339 337 -2.951015029620437
339 339 7.546383223353591E1
339 340 3.8959319241356285
339 341 5.211253024273065E-1
339 374 -6.555313621807555E-1
339 396 2.725283831620473
339 397 4.120616718649189E-2
339 535 -2.3149797830965912
339 536 -9.303198406079152E-1
339 537 -1.904262785606916
339 541 3.055720802393649
339 542 -1.2862473346421546
339 543 3.4348676432424163E-1
339 548 -7.717578768916834
339 549 -2.090524062908553
339 550 -1.2833186246262598E-1
339 552 2.798155064063672
339 553 1.948576024907526
339 554 1.430474436773813
339 562 2.854626790458858
339 563 2.0038217991896516
339 564 -1.4442244454859348
339 579 -4.8142799722521845
339 583 -6.445865040976513
339 584 3.065936377138881
339 585 1.580507660891837E-2
340 246 1.9255024392175015
340 247 3.13027791713956
340 256 1.1555179970703229
340 257 1.438377348932036
340 258 3.862576952199013E-1
340 259 -9.544222064558179E-1
340 260 -2.5508957379411266
340 261 -3.467864547690743E-2
340 266 -1.2943389862032142
340 267 -9.443897439024884E-1
340 268 -1.6807888295556128
340 270 1.8807896814097744
340 271 -6.041265466869755E-1
340 272 -8.344863448417835
340 273 5.045415958592683E-1
340 275 2.8311598148820316
340 276 -6.979987369400121
340 277 2.1194858792248972E-2
340 285 -4.273193058502085E-1
340 286 -7.058905240313148
340 287 1.1801113857051637
340 288 -1.5571333951349553
340 289 -7.244741770537E-1
340 290 2.481026442749357
340 300 -1.3008046310487935
340 301 4.600239398312296
340 302 -3.0999995588969098E-2
340 303 -3.3101217809121994
340 304 -7.762906675125393
340 305 1.4137996329210978E-16
340 313 -1.619047693414696
340 314 -3.4218209314644312
340 315 1.7704153552133015
340 316 9.554237791525129E-1
340 317 2.519691334325914
340 318 -5.722306528203529E-1
340 321 2.0696251620481343E-15
340 322 -2.0964984673078813
340 323 9.313560564798269E-16
340 324 1.687139540424257
340 325 1.82885910291845
340 326 -3.126893204227315
340 327 -4.401705416817563E-1
340 328 -7.174733439900929
340 329 -8.711590164753054E-1
340 330 -2.6640040013430593
340 331 3.727308008309787
340 332 -5.706095967800602E-1
340 333 -8.293879779981166
340 334 -2.707800038782592E-1
340 335 -1.557133395134955
340 336 -7.244741770537007E-1
340 337 -2.4810264427493562
340 339 3.8959319241356285
340 340 7.437557591560012E1
340 341 -1.895184600976626E-1
340 374 -5.376630173083807
340 396 -6.55531362180756E-1
340 397 -3.9422201718575245E-4
340 535 -9.30319840607915E-1
340 536 -2.911532670136701
340 537 -3.7960765551605835
340 541 -1.2862473346421548
340 542 2.9921598829303577
340 543 7.293756335528948E-2
340 548 -2.090524062908551
340 549 -2.2086514095351315E1
340 550 1.369665495263045E-2
340 552 1.948576024907526
340 553 1.6912077609850233
340 554 -2.8133810357566067
340 562 2.0038217991896534
340 563 1.929755392323936
340 564 2.809977218103058
340 579 -1.101315751638143
340 583 3.0659363771388817
340 584 -4.140145689961117
340 585 3.391035673895853E-4
341 246 -7.241960019262647E-1
341 247 1.9911988644876568
341 256 -2.014626831147858
341 257 3.862576952199004E-1
341 258 7.987724028631928E-1
341 259 -1.6331304725375526E-1
341 260 -3.467864547690751E-2
341 261 -4.5833753271676425
341 266 -2.9975038818838673
341 267 -1.6807888295556124
341 268 -1.3937335135993019
341 270 3.1302779171395603
341 271 -4.416151623550683
341 272 5.045415958592688E-1
341 273 -1.737759678711074E1
341 275 1.1861930253818506E-1
341 276 2.1194858792251137E-2
341 277 -2.8059209810279087
341 285 4.7863941729940604
341 286 1.1801113857051635
341 287 -1.4224639092565246E1
341 288 2.9510150296204385
341 289 2.4810264427493576
341 290 -1.7390819318118744
341 300 4.771534936216154E-3
341 301 -3.0999995588969237E-2
341 302 4.913584251381722
341 303 -7.216449660063518E-16
341 304 4.49293380277993E-16
341 305 -2.6963667011474493
341 313 2.7491379969362937
341 314 1.7704153552133004
341 315 -5.8600568735501115
341 316 2.058458967901217
341 317 -5.722306528203547E-1
341 318 1.6865988037180686
341 321 -3.090628438522355E-15
341 322 3.668306804339567E-16
341 323 -2.0964984673078817
341 324 7.251856957981092E-1
341 325 -3.1268932042273145
341 326 1.942163215482581
341 327 -4.814279972252185
341 328 -1.1013157516381424
341 329 1.8989802548860584
341 330 3.7273080083097847
341 331 -7.449606020253121
341 332 3.913244778259182
341 333 -2.7078000387826046E-1
341 334 -1.748630124694138E1
341 335 -2.9510150296204376
341 336 -2.481026442749357
341 337 -1.7390819318118762
341 339 5.211253024273065E-1
341 340 -1.895184600976626E-1
341 341 8.655005982499037E1
341 374 -3.942220171851696E-4
341 396 4.1206167186491505E-2
341 397 2.4290369081065752
341 535 -1.9042627856069148
341 536 -3.796076555160584
341 537 -7.488542148143763
341 541 3.434867643242413E-1
341 542 7.293756335529007E-2
341 543 7.078693908771602
341 548 -1.2833186246262585E-1
341 549 1.3696654952632503E-2
341 550 -8.147763170092162
341 552 1.4304744367738116
341 553 -2.813381035756607
341 554 1.6639746609115056
341 562 -1.444224445485934
341 563 2.8099772181030565
341 564 1.7621459309701302
341 579 -1.4282330810099921E1
341 583 1.580507660891883E-2
341 584 3.391035673896694E-4
341 585 -1.4453337690530306
342 163 4.1445396140305485E-1
342 164 -1.2742869950390534E-2
342 165 -4.673107644100903E-1
342 166 -8.047289465580781E-2
342 174 1.2232668629349495
342 175 2.669024386702698E-1
342 176 7.973816533528153E-1
342 182 2.1411470096198957
342 183 -7.101272356172501
342 184 1.5725697166969963
342 342 1.42040265247425E1
342 343 -4.408861643574445
342 344 -1.7091917694755543E-1
342 345 -1.319869309626112E-1
342 346 -5.415366989745934E-1
342 353 -4.4789132272132853E-1
342 354 -3.5521808763449134
342 355 2.914554085782458
342 359 -4.86130021949819
342 360 1.7017080196271223E-1
342 371 -8.552393868707728E-1
342 372 1.1885542895158356
342 373 -3.696715083585306E-2
342 377 -2.224345052762435
343 163 -2.730735784045742E-1
343 164 -4.255463784454007E-1
343 165 -6.22085363755962E-2
343 166 5.968645684757852E-1
343 174 -1.79204535827231
343 175 -2.1070727598877848E-2
343 176 -2.032282879939047
343 182 -1.028262988622788
343 183 2.4896862671810895
343 184 -3.476218329552017
343 342 -4.408861643574445
343 343 1.1985762209023452E1
343 344 -4.8936590561425625E-1
343 345 -2.818972970776532E-1
343 346 -4.6695551090112164E-1
343 353 6.420452307736911E-1
343 354 2.035417181020451
343 355 -5.225142825824514
343 359 1.0212635588555357
343 360 -1.2841090913568747
343 371 1.2756200711948213
343 372 -4.089909603606997E-1
343 373 5.611549649257184E-1
343 377 1.068217960469631
344 166 -1.7125973910116838
344 342 -1.7091917694755543E-1
344 343 -4.8936590561425625E-1
344 344 1.0899481245829776E1
344 345 -1.8074254830289063E-1
344 346 1.5312713207478528
344 359 1.3286542072986243
344 360 -5.06828971971771E-1
344 362 -1.381913518687881
344 363 5.271452904623602E-1
344 371 -4.953890991050012
344 372 6.505791733026873E-1
344 373 -1.7293060166514764
344 377 -1.0124190385137886
344 380 -2.20888433170899
344 395 7.704339844624695E-1
344 401 -1.7821234780077737
344 402 3.227391010482574E-1
344 421 -8.437737391135637E-1
344 453 -5.683972377112422E-1
344 454 1.5108580221408543
345 166 2.815680679499753E-1
345 342 -1.319869309626112E-1
345 343 -2.818972970776532E-1
345 344 -1.8074254830289063E-1
345 345 1.2478342959002427E1
345 346 -4.590800450115658
345 359 -2.7353131419745207
345 360 8.770057150448426E-1
345 362 -5.309757267284246
345 363 9.104998721837326E-1
345 371 1.1684894624181268
345 372 -5.820167176555432
345 373 3.3515671640943188
345 377 1.328654207298624
345 380 -1.3819135186878804
345 395 -1.0208844826087733
345 401 -1.951711880671823E-1
345 402 -8.39957326470367E-3
345 421 -5.216417610294432E-1
345 453 1.5272811310390846
345 454 2.5526675689986E-1
346 166 -1.0150853078969926
346 342 -5.415366989745934E-1
346 343 -4.6695551090112164E-1
346 344 1.5312713207478528
346 345 -4.590800450115658
346 346 1.4210961221129912E1
346 359 1.794298647632936
346 360 -1.011611027475663
346 362 1.7790976074175273
346 363 -2.2097247319957622
346 371 -1.7293060166514769
346 372 2.2267010926621045
346 373 -1.0581457160946407E1
346 377 -1.0122870098703338
346 380 1.0528646927450964
346 395 1.5108580221408547
346 401 -3.383157012150003E-1
346 402 -3.140686221853225E-1
346 421 -2.918186872222974E-1
346 453 -3.5369157643699434E-1
346 454 3.506058974113405E-1
347 168 -2.085850940264609
347 169 -1.688793719294691E-1
347 170 -2.7307357840201263E-1
347 174 9.275064481514639E-2
347 175 6.255531763174478E-1
347 176 1.433636286617927
347 191 -2.7925064063085125
347 192 1.284688205781861
347 193 5.025435863400513E-1
347 347 1.0996482343418645E1
347 348 1.5507392943394427E-1
347 349 7.047646326432782E-1
347 350 -1.3507076858122624
347 351 2.72241993819307E-1
347 352 6.571492528478062E-2
347 353 -4.458828998161421
347 354 -8.340709017553232E-1
347 355 -1.9115150488209807
347 366 -1.334607031667768
347 384 -4.013389576869865E-1
347 385 -5.220708036630437E-1
348 168 4.1445396140579E-1
348 169 -1.274286995415308E-2
348 170 4.673107644100907E-1
348 174 1.0630531763195588
348 175 3.942996618804009E-1
348 176 -9.652862750628941E-1
348 191 1.2846882057818596
348 192 -6.347403954516233
348 193 -1.5725697166969936
348 347 1.5507392943394427E-1
348 348 1.23110308745398E1
348 349 4.515727866289874
348 350 -1.6525800618280456E-1
348 351 1.775499260269539E-1
348 352 4.0619376452360995E-1
348 353 -1.4174042350905802
348 354 -4.860894354247813
348 355 -2.6812056015009764
348 366 -1.6618392837289564
348 384 -1.3346070316677678
348 385 -1.7017080196271028E-1
349 168 2.730735784045744E-1
349 169 4.255463784454012E-1
349 170 -6.2208536385202406E-2
349 174 1.4336362866179257
349 175 -1.4683389411120173E-1
349 176 -1.8760541261659671
349 191 1.028262988622787
349 192 -2.4896862671810864
349 193 -3.6307791641787848
349 347 7.047646326432782E-1
349 348 4.515727866289874
349 349 1.3124609695187207E1
349 350 -4.600044769979552E-1
349 351 5.048579340560102E-1
349 352 3.114239427941864E-1
349 353 -1.9115150488209804
349 354 -1.788348458643465
349 355 -8.336498177802733
349 366 -1.0212635588555323
349 384 -1.0682179604696296
349 385 4.695063665512935E-1
350 347 -1.3507076858122624
350 348 -1.6525800618280456E-1
350 349 -4.600044769979552E-1
350 350 1.0671747496114847E1
350 351 2.641272369174327E-1
350 352 1.296041034828039
350 353 1.1131230107094464E-2
350 354 4.9258600206249703E-1
350 355 1.3800134309915868
350 356 -6.334034439730905
350 357 -7.388790030935939E-1
350 358 -2.070020146486957
350 366 8.564310887595064E-1
350 368 -8.907612626972558E-1
350 375 -6.809633323587359E-1
350 384 -2.173788658915808
350 385 4.9058890478367234E-1
350 388 -1.4338460940423156E-1
350 389 -5.102542376448935E-1
350 437 1.817539442342183E-1
350 438 -1.2636450947349281E-1
351 347 2.72241993819307E-1
351 348 1.775499260269539E-1
351 349 5.048579340560102E-1
351 350 2.641272369174327E-1
351 351 1.1733500156588347E1
351 352 4.666788157064112
351 353 7.842526687306319E-1
351 354 1.8417595260972766E-1
351 355 -7.705261831205423E-1
351 356 -1.1763790030957066
351 357 -6.593601523484801
351 358 -3.010877392001964
351 366 -4.770399930770577
351 368 -1.0491526584911446
351 375 -1.099127224339162E-1
351 384 8.564310887595068E-1
351 385 -1.354247569711803
351 388 -8.907612626972556E-1
351 389 -4.1412770324382675E-1
351 437 3.179280775214939E-1
351 438 3.781327569580135E-1
352 347 6.571492528478062E-2
352 348 4.0619376452360995E-1
352 349 3.114239427941864E-1
352 350 1.296041034828039
352 351 4.666788157064112
352 352 1.6182894930395413E1
352 353 1.3800134309915881
352 354 -2.6478564070339106E-2
352 355 -1.8840335702843012
352 356 -2.070020146486958
352 357 -2.0436154872357695
352 358 -1.2967293630999794E1
352 366 -2.271540502299897
352 368 -1.2827254384776208
352 375 -6.31822547372056E-1
352 384 9.960469426822355E-1
352 385 -2.9690061295076204
352 388 -1.0359736399276294
352 389 6.837092776816336E-1
352 437 5.513780704959044E-1
352 438 6.423051799204813E-1
353 166 -1.2057908659231527
353 174 -1.2014950939772316E1
353 175 -3.7451552464897917
353 176 2.0480518380211277E-1
353 182 2.9125050694754355
353 183 3.5262842698778423
353 184 1.5771582068482095
353 191 -1.5997636844765084
353 192 3.4275707504895747
353 193 -1.5771582068482077
353 342 -4.4789132272132853E-1
353 343 6.420452307736911E-1
353 347 -4.458828998161421
353 348 -1.4174042350905802
353 349 -1.9115150488209804
353 350 1.1131230107094464E-2
353 351 7.842526687306319E-1
353 352 1.3800134309915881
353 353 3.9875348965763294E1
353 354 5.528165008940655
353 355 1.7150894890772745
353 356 -2.2536639799976346
353 357 -1.2880126180741802E-1
353 358 2.3024092964561002E-1
353 359 -3.061217971996494
353 360 -1.6384414704197576
353 366 -4.162841348866028
353 371 -1.3963536342036349E1
353 372 -3.0296131106706237E-1
353 373 -2.260679215469296
353 377 -1.5412469060707632
353 384 -5.761203548907683
353 385 1.638441470419756
354 166 -3.170452342874513E-1
354 174 -2.578488579823128
354 175 -5.27877125834971
354 176 9.594549811986114E-2
354 182 3.526284269877844
354 183 4.752050969443518
354 184 -1.8584925085951975
354 191 3.4275707504895765
354 192 -3.618245261574609
354 193 1.8584925085951958
354 342 -3.5521808763449134
354 343 2.035417181020451
354 347 -8.340709017553232E-1
354 348 -4.860894354247813
354 349 -1.788348458643465
354 350 4.9258600206249703E-1
354 351 1.8417595260972766E-1
354 352 -2.6478564070339106E-2
354 353 5.528165008940655
354 354 3.591065939299299E1
354 355 -3.030422080843568E-1
354 356 -8.429806835765545E-1
354 357 7.387661367161045E-1
354 358 7.371344644495117E-1
354 359 -7.160823873098801
354 360 -2.5121175563919524
354 366 -8.863788325959016
354 371 -1.177961311065594
354 372 -8.250948502187473
354 373 -7.506279127916557E-1
354 377 -3.061217971996494
354 384 -4.162841348866027
354 385 2.5121175563919476
355 166 6.420452307736908E-1
355 174 2.0480518380211338E-1
355 175 9.594549811986182E-2
355 176 -4.0006315187394454
355 182 1.5771582068482102
355 183 -1.8584925085951975
355 184 2.810620553176245
355 191 -1.5771582068482082
355 192 1.858492508595195
355 193 -4.562807002140686E-1
355 342 2.914554085782458
355 343 -5.225142825824514
355 347 -1.9115150488209807
355 348 -2.6812056015009764
355 349 -8.336498177802733
355 350 1.3800134309915868
355 351 -7.705261831205423E-1
355 352 -1.8840335702843012
355 353 1.7150894890772745
355 354 -3.030422080843568E-1
355 355 3.269733858378568E1
355 356 2.3024092964560966E-1
355 357 7.508547025450181E-1
355 358 8.151771707095289E-1
355 359 -2.5121175563919533
355 360 -3.1311735710384996
355 366 2.512117556391947
355 371 -2.260679215469295
355 372 -6.580293741452803E-3
355 373 -8.036027446449904
355 377 -1.6384414704197583
355 384 1.6384414704197565
355 385 -5.253348497317989
356 350 -6.334034439730905
356 351 -1.1763790030957066
356 352 -2.070020146486958
356 353 -2.2536639799976346
356 354 -8.429806835765545E-1
356 355 2.3024092964560966E-1
356 356 2.2857807710949064E1
356 357 2.019225509843648
356 358 1.2857213106308047
356 366 2.1337685058408975
356 368 -2.2193009496181357
356 371 -5.6781433119943
356 372 8.995882219579776E-1
356 373 8.813847722450889E-1
356 375 -1.1790633097732803E-1
356 376 -2.0991662173620966
356 384 6.15786149834578E-1
356 385 2.7931205009520475E-2
356 388 -4.956724890151538
356 389 -2.9050831724210063E-2
356 395 -2.03395469056984
356 437 4.9245636121916014E-1
356 438 1.3268273494831555
356 439 2.999084311614486E-2
356 440 6.51841096419317E-2
356 453 -1.3363688056874317
356 454 -1.718218698444943
357 350 -7.388790030935939E-1
357 351 -6.593601523484801
357 352 -2.0436154872357695
357 353 -1.2880126180741802E-1
357 354 7.387661367161045E-1
357 355 7.508547025450181E-1
357 356 2.019225509843648
357 357 2.8891475245436997E1
357 358 7.813971629722769
357 366 -8.23844160118875E-2
357 368 -1.0704950332647718E1
357 371 1.1108445995070928
357 372 -1.0755262667745848E1
357 373 -5.515262361786684
357 375 3.466230278850928E-1
357 376 -6.187655344350814E-1
357 384 2.133768505840897
357 385 8.20805722503136E-1
357 388 -2.219300949618137
357 389 -8.537078480710528E-1
357 395 -1.9047148941225007
357 437 -1.444436385140187E-1
357 438 4.746319482120637E-2
357 439 3.840395919490404E-1
357 440 3.744325080816046E-1
357 453 -1.7336383956978703
357 454 -1.3949420605802274
358 350 -2.070020146486957
358 351 -3.010877392001964
358 352 -1.2967293630999794E1
358 353 2.3024092964561002E-1
358 354 7.371344644495117E-1
358 355 8.151771707095289E-1
358 356 1.2857213106308047
358 357 7.813971629722769
358 358 3.1545826608461198E1
358 366 8.20805722503136E-1
358 368 -8.537078480710527E-1
358 371 8.813847722450889E-1
358 372 -4.613610576069037
358 373 -1.1295719571157E1
358 375 1.3268273494831553
358 376 6.518410964193297E-2
358 384 2.7931205009520163E-2
358 385 1.9108908194439251
358 388 -2.90508317242105E-2
358 389 -6.303744032692598
358 395 -1.7182186984449448
358 437 -6.221796623255351E-1
358 438 -1.9400309802554054
358 439 4.4004262713015385E-1
358 440 6.864104064901113E-1
358 453 -7.115789653379805E-1
358 454 -2.4515167899999684
359 166 -2.224345052762435
359 182 -1.7891855306787188
359 183 -5.766432138127989
359 184 2.0443735872018123E-1
359 191 8.783756567198417E-1
359 192 3.1155610275695835
359 193 -4.0724520784176743E-1
359 342 -4.86130021949819
359 343 1.0212635588555357
359 344 1.3286542072986243
359 345 -2.7353131419745207
359 346 1.794298647632936
359 353 -3.061217971996494
359 354 -7.160823873098801
359 355 -2.5121175563919533
359 359 6.294973416073303E1
359 360 2.595448141899523
359 361 -9.549008549408708
359 362 -7.087711012031506
359 363 1.1575007241928137
359 364 -1.966479057331328E1
359 366 -8.719065558566456
359 367 2.6724260525872854
359 368 5.844491599724099
359 369 2.743271369036594
359 371 3.5672078161619982
359 372 -1.138390312582838E1
359 373 -2.0822359406205733
359 374 -3.971360178027672E-1
359 377 -5.998223179901869
359 378 -1.3253919552235465
359 379 -2.761967142339538
359 380 3.417905035549127
359 381 6.281418346271341
359 382 -2.0308628421509662
359 384 2.4934366836357245
359 385 -1.980118446810485
359 386 -3.8397744078587133
359 387 3.089151258775157
359 388 5.114489010894816E-1
359 389 -1.6069953366453644
359 390 1.2128012831812311
359 391 3.0462942632264447
359 396 -1.4531098314855933
359 397 4.7314851949805603E-1
360 166 5.220708036630454E-1
360 182 4.4787810301014847E-1
360 183 2.919032418208269E-1
360 184 -6.011415710528156
360 191 -3.2024885412456587
360 192 -4.0724520784176776E-1
360 193 -2.3282019889737885E-2
360 342 1.7017080196271223E-1
360 343 -1.2841090913568747
360 344 -5.06828971971771E-1
360 345 8.770057150448426E-1
360 346 -1.011611027475663
360 353 -1.6384414704197576
360 354 -2.5121175563919524
360 355 -3.1311735710384996
360 359 2.595448141899523
360 360 4.3520294459612245E1
360 361 -1.9321400928520904
360 362 9.931620600101543E-1
360 363 -7.712104662702207
360 364 -1.0154314210754842
360 366 -1.980118446810485
360 367 3.089151258775156
360 368 -1.6069953366453649
360 369 3.0462942632264456
360 371 1.5163741136956883
360 372 -2.0822359406205737
360 373 -5.059635918939387
360 374 4.731485194980564E-1
360 377 5.218435882489697E-1
360 378 -5.995487625754324E-1
360 379 -5.538367689805627
360 380 -2.268045338036049
360 381 6.031033159278174E-1
360 382 -9.262763864679219
360 384 1.279527261733271
360 385 -1.1881829019501808E1
360 386 -3.2814752096499905E-1
360 387 2.5212760676348185
360 388 3.53063606221066
360 389 2.3501013547220877
360 390 -1.8093099477834462
360 391 2.218524130380767
360 396 1.931377304507513
360 397 3.060965635672639E-1
361 246 -1.8191357605604854
361 247 -5.664244908150273E-1
361 248 1.3274985873743517
361 249 4.8632758848140545E-1
361 270 -8.282548970037567E-1
361 288 -1.7805981080088906
361 289 -7.924463420617645
361 290 -4.251056725903901E-1
361 294 1.866095682434366
361 295 -2.580284877884033
361 296 -1.2815773435148063
361 303 1.9344093294661595
361 304 -2.6649563618591974
361 305 3.0835400838020592
361 359 -9.549008549408708
361 360 -1.9321400928520904
361 361 4.0396557721446754E1
361 362 -3.053013650034493
361 363 -3.981564234086187E-1
361 364 -2.0565384625918575
361 367 6.423285522137848
361 374 -1.7876127601856155E1
361 377 -1.3253919552235467
361 378 -4.628017414832519E-1
361 379 2.3932192249232114
361 380 1.1496404517987597
361 381 -5.118397484803258E-1
361 382 4.117822428672855E-1
361 386 -1.556532592149024
361 387 -1.3120749669090275
361 396 1.1786558548318895
361 397 -4.5939014998400074E-1
361 441 -2.8719542232876427E-1
362 248 -1.9984317268477918
362 249 -8.247696408050883E-1
362 344 -1.381913518687881
362 345 -5.309757267284246
362 346 1.7790976074175273
362 359 -7.087711012031506
362 360 9.931620600101543E-1
362 361 -3.053013650034493
362 362 3.543754555651517E1
362 363 -5.770892262964904E-1
362 368 5.022383466930587
362 371 -3.581595363531159
362 372 -2.2687926342900125E-1
362 373 -2.4089628485557366
362 374 -8.378252265216439
362 377 3.4179050355491274
362 378 1.1496404517987595
362 379 -1.3871051218210573
362 380 -2.930128804269211
362 388 -1.2616828075004002E-1
362 389 4.4320804584726653E-1
362 395 3.4460177120171256
362 396 -2.8980829035453987E-2
362 397 3.059665049784556
362 401 1.467682701338175
362 402 -2.2730027908519688
362 412 5.659726224183501E-1
362 413 -4.180850496854181
362 414 -6.027434178409648E-2
362 421 1.322963430702654
362 441 -1.715196226603458
362 453 -8.235266051140464
362 454 -2.3398950144996897
363 248 -1.285048456619738
363 249 -8.677280619787546E-1
363 344 5.271452904623602E-1
363 345 9.104998721837326E-1
363 346 -2.2097247319957622
363 359 1.1575007241928137
363 360 -7.712104662702207
363 361 -3.981564234086187E-1
363 362 -5.770892262964904E-1
363 363 3.0521790438895646E1
363 368 4.43208045847266E-1
363 371 -1.5771582068482068
363 372 -2.4089628485557353
363 373 -1.4456408026887008E-1
363 374 3.059665049784557
363 377 -3.417295810770449
363 378 7.964220170270213E-1
363 379 1.804061141680734E-1
363 380 4.1748160240353327E-1
363 388 -1.7442151936726558
363 389 -4.0752083591549293E-1
363 395 3.412955686487154
363 396 1.6816402824153645
363 397 -7.3872134555048605
363 401 -4.658840652936144E-1
363 402 5.685169309243182E-1
363 412 1.65395685440923
363 413 -1.8062530496274076E-1
363 414 -4.3692354706958
363 421 -5.776444096427447E-1
363 441 -2.3466180520941285E-1
363 453 -2.339895014499689
363 454 -7.026460844359227
364 32 -2.904458411939794
364 49 -3.4766444079223273
364 50 3.132696651695919
364 180 3.0407528512346416E-1
364 181 1.4989127583621756E-1
364 182 -5.164779226813067
364 183 -8.843378449484735
364 184 1.6506056537359144
364 188 4.548035259118639E-1
364 189 2.372795764149795
364 190 -4.5851508511931843E-1
364 191 -7.047389350167595E-1
364 192 1.1888262071719313
364 193 -2.475908480603875
364 282 1.8406431991135912
364 283 -1.0028446620596162E1
364 284 -3.9331584556191332
364 294 -1.6011650177220091
364 295 -5.685518365469243
364 296 -3.2232367717610417
364 303 -2.9194634249786535
364 304 -7.581193807015345
364 305 3.313022502210819
364 306 3.375518137205778
364 359 -1.966479057331328E1
364 360 -1.0154314210754842
364 361 -2.0565384625918575
364 364 5.7793480911581064E1
364 367 5.192999837401413
364 369 -6.307133621971445
364 377 6.2814183462713435
364 378 -5.118397484803272E-1
364 379 4.224608886491104E-1
364 381 -1.3763801936065592
364 382 2.726009253281047
364 386 1.3526375720527428
364 387 -4.650013249571001E-1
364 390 -1.3307295190614084
364 391 1.7656531372692533E-1
365 5 7.785207462964323E-1
365 6 1.2153095361970667E-1
365 7 -2.361456883045493E-2
365 8 2.4252981824765443
365 9 -6.805627550560873
365 49 -6.695183627084552
365 50 2.441527000913365
365 188 -1.9316196209714311
365 189 -2.440946250561703
365 190 2.0493494207199958E-1
365 281 1.1251097970813646
365 297 -7.807382940967399E-1
365 298 -5.741744603177633
365 299 2.078386142895648
365 300 -2.892252680301682E-1
365 301 2.017794339274912E-1
365 302 -2.812127419932815
365 303 7.252877052227908E-1
365 304 1.1518087950913414
365 305 3.706004190194512E-1
365 306 -4.360624371926223E-1
365 338 -2.939539803488515
365 365 3.0743145400421128E1
365 369 -1.0028446620596165E1
365 370 -1.3171437230177905
365 390 1.8406431991135919
365 391 3.0971769829693496
365 393 6.074355906701189E-1
365 394 -7.402486930102747E-1
365 580 -4.93091681123859
366 191 -3.602816648645088E-2
366 192 -2.7214889237892645
366 193 2.028078491215879E-1
366 347 -1.334607031667768
366 348 -1.6618392837289564
366 349 -1.0212635588555323
366 350 8.564310887595064E-1
366 351 -4.770399930770577
366 352 -2.271540502299897
366 353 -4.162841348866028
366 354 -8.863788325959016
366 355 2.512117556391947
366 356 2.1337685058408975
366 357 -8.23844160118875E-2
366 358 8.20805722503136E-1
366 359 -8.719065558566456
366 360 -1.980118446810485
366 366 4.982654682968898E1
366 367 -1.8869765411966693E1
366 368 -1.2401371115901894E1
366 369 -8.460759602138333
366 371 2.4066337016036066
366 372 2.396907803594774
366 373 1.7470237211595574
366 374 1.4327407935549335E1
366 377 2.493436683635724
366 384 -5.916221087769778
366 385 1.5731364089119584
366 386 2.8900767435123904
366 387 -3.2718411643561873E-1
366 388 2.800327588823796
366 389 2.3279530688688516E-1
366 390 3.7471098147262842
366 391 -1.0154314210754825
366 396 -5.87808649211218
366 397 -4.7314851949805586E-1
367 303 2.379146622274526
367 304 -8.7947433100575
367 305 -3.0835400838020606
367 324 -1.8191357605604863
367 325 -8.282548970037584E-1
367 326 5.664244908150278E-1
367 335 -1.7805981080088924
367 336 -7.924463420617647
367 337 4.2510567259038934E-1
367 359 2.6724260525872854
367 360 3.089151258775156
367 361 6.423285522137848
367 364 5.192999837401413
367 366 -1.8869765411966693E1
367 367 6.0976274738299736E1
367 368 -3.0530136500344938
367 369 -5.450072726898135
367 370 -2.5802848778840355
367 374 -2.7477192433635256E1
367 377 -3.8397744078587137
367 378 -1.556532592149024
367 379 -1.3120749669090284
367 381 1.3526375720527435
367 382 -4.6500132495710045E-1
367 384 2.8900767435123913
367 385 -1.1570111659230666
367 386 -7.791049401522384
367 387 2.3093070889484835E-1
367 388 1.1496404517987602
367 389 3.9815642340861895E-1
367 390 1.1380237701690427E-1
367 391 5.321908208981466E-2
367 393 1.8660956824343649
367 394 1.2815773435148075
367 396 5.708192233635465
367 397 4.593901499839991E-1
367 448 1.3274985873743514
367 449 -2.871954223287638E-1
367 450 -4.863275884814051E-1
368 350 -8.907612626972558E-1
368 351 -1.0491526584911446
368 352 -1.2827254384776208
368 356 -2.2193009496181357
368 357 -1.0704950332647718E1
368 358 -8.537078480710527E-1
368 359 5.844491599724099
368 360 -1.6069953366453649
368 362 5.022383466930587
368 363 4.43208045847266E-1
368 366 -1.2401371115901894E1
368 367 -3.0530136500344938
368 368 4.750660877540468E1
368 371 -2.6317085243808624
368 372 -2.8345270868030004
368 373 2.7576121021823705
368 374 -1.3369560965423464E1
368 375 4.132705318105522E-1
368 376 1.9150954021858153
368 377 5.114489010894817E-1
368 380 -1.261682807500407E-1
368 384 2.800327588823796
368 385 3.971339710695446E-1
368 386 1.1496404517987597
368 387 1.3871051218210575
368 388 -1.744250016889049
368 389 1.0110161755572947E-1
368 392 8.070948922313403E-2
368 395 3.0512360061996153
368 396 -3.1110760994802117E-1
368 397 -3.121532417244623
368 437 -2.8226270118846473
368 438 -1.7197453117056418
368 439 -3.374812432903427E-1
368 440 5.33166769420706E-1
368 448 -1.9984317268477911
368 449 -1.7151962266034575
368 450 8.247696408050891E-1
368 451 -5.339736255912786
368 452 1.2752440118269107E-2
368 453 -4.7458672950664225
368 454 2.1278566433242716
369 49 2.4162695232524722
369 50 -3.1326966516959205
369 188 -1.5221962075789752
369 189 -5.0545842242758185
369 190 3.086238092831026E-1
369 191 -5.098017583837449
369 192 -8.720415003171894
369 193 8.253028268679545E-1
369 297 1.8406431991135923
369 298 3.9331584556191315
369 303 -3.36420071778702
369 304 -1.451406858817049
369 305 -3.3130225022108197
369 306 3.600057189547374
369 359 2.743271369036594
369 360 3.0462942632264456
369 364 -6.307133621971445
369 365 -1.0028446620596165E1
369 366 -8.460759602138333
369 367 -5.450072726898135
369 369 4.5998796131049005E1
369 370 -5.68551836546924
369 377 1.212801283181232
369 381 -1.3307295190614088
369 382 1.7656531372692524E-1
369 384 3.7471098147262825
369 385 -2.030862842150965
369 386 1.1380237701690477E-1
369 387 4.2540436307989225E-2
369 390 2.4018951824014754
369 391 -3.079139880734885
369 393 -1.6011650177220083
369 394 3.2232367717610404
370 297 6.074355906701168E-1
370 298 -5.957191300446931E-1
370 299 2.1676603194854516E-1
370 303 9.331814615110079E-17
370 304 -4.041145776763975
370 305 7.701586496529352E-16
370 335 -1.9378295338629616
370 336 -1.8543684186500748
370 337 1.3272600632918385E-1
370 338 8.908925058899272E-1
370 365 -1.3171437230177905
370 367 -2.5802848778840355
370 369 -5.68551836546924
370 370 2.0111602602507936E1
370 386 1.866095682434365
370 387 6.139693814669455E-1
370 390 -1.6011650177220083
370 391 2.3337220285193925
370 393 1.745707725905603E-1
370 394 -2.701464318219375
370 580 -4.633141440722819
371 166 -7.665432398985093E-1
371 342 -8.552393868707728E-1
371 343 1.2756200711948213
371 344 -4.953890991050012
371 345 1.1684894624181268
371 346 -1.7293060166514769
371 353 -1.3963536342036349E1
371 354 -1.177961311065594
371 355 -2.260679215469295
371 356 -5.6781433119943
371 357 1.1108445995070928
371 358 8.813847722450889E-1
371 359 3.5672078161619982
371 360 1.5163741136956883
371 362 -3.581595363531159
371 363 -1.5771582068482068
371 366 2.4066337016036066
371 368 -2.6317085243808624
371 371 3.9313752856835606E1
371 372 -2.3383712803494223
371 373 2.190826963918513
371 377 -6.117916067626655
371 380 -4.942954206242407E-1
371 384 2.5542445239252807
371 385 -1.527781053202529
371 388 -7.626414186889416E-1
371 389 1.5890223953065474
371 395 -9.131030588841885
371 453 2.331700286506987
371 454 -3.5830382418915135E-1
372 166 -1.2607272020621763E-1
372 342 1.1885542895158356
372 343 -4.089909603606997E-1
372 344 6.505791733026873E-1
372 345 -5.820167176555432
372 346 2.2267010926621045
372 353 -3.0296131106706237E-1
372 354 -8.250948502187473
372 355 -6.580293741452803E-3
372 356 8.995882219579776E-1
372 357 -1.0755262667745848E1
372 358 -4.613610576069037
372 359 -1.138390312582838E1
372 360 -2.0822359406205737
372 362 -2.2687926342900125E-1
372 363 -2.4089628485557353
372 366 2.396907803594774
372 368 -2.8345270868030004
372 371 -2.3383712803494223
372 372 3.889357694308346E1
372 373 2.2829173687976363
372 377 3.5672078161619964
372 380 -3.581595363531159
372 384 2.4066337016036066
372 385 1.747023721159557
372 388 -2.6317085243808624
372 389 2.757612102182369
372 395 1.456700286508457
372 453 -3.207351213644941
372 454 5.061263345458327E-1
373 166 1.2756200711948211
373 342 -3.696715083585306E-2
373 343 5.611549649257184E-1
373 344 -1.7293060166514764
373 345 3.3515671640943188
373 346 -1.0581457160946407E1
373 353 -2.260679215469296
373 354 -7.506279127916557E-1
373 355 -8.036027446449904
373 356 8.813847722450889E-1
373 357 -5.515262361786684
373 358 -1.1295719571157E1
373 359 -2.0822359406205733
373 360 -5.059635918939387
373 362 -2.4089628485557366
373 363 -1.4456408026887008E-1
373 366 1.7470237211595574
373 368 2.7576121021823705
373 371 2.190826963918513
373 372 2.2829173687976363
373 373 3.705578330232744E1
373 377 1.5163741136956888
373 380 -1.5771582068482073
373 384 -1.5277810532025295
373 385 6.590032678546749E-1
373 388 1.5890223953065483
373 389 -2.4186193496722366E-1
373 395 -3.583038241891512E-1
373 453 6.549358583566198E-1
373 454 -2.916675422379039
374 236 8.921742947544224E-1
374 237 1.8672146988952871
374 238 3.9377067237342356E-1
374 239 -1.7146962982780196
374 240 -3.0008943538435423E-1
374 246 -7.763412019601457E-1
374 247 -4.014950874989564
374 248 -7.986039226439436E-1
374 249 5.268574209816361E-1
374 250 -1.6523239891879234E-15
374 255 2.390034979195277
374 269 2.655968579256737
374 270 -7.7011924260263385
374 274 -3.715604934551136
374 275 -2.5507633542351167
374 276 -4.847154999166876
374 277 1.706201293607934E-3
374 288 1.7530715757117783
374 289 7.022502939174999E-1
374 290 -2.3856245323027037
374 303 3.385847725323989
374 304 -7.357697907713424E-1
374 305 2.0252896582029223E-16
374 319 -1.590153772321874
374 320 3.3201302548224043E-1
374 324 -5.296293046996466E-1
374 325 -7.664119796676283
374 326 3.9589050050538477
374 335 1.753071575711779
374 336 7.022502939175045E-1
374 337 2.385624532302703
374 339 -6.555313621807555E-1
374 340 -5.376630173083807
374 341 -3.942220171851696E-4
374 359 -3.971360178027672E-1
374 360 4.731485194980564E-1
374 361 -1.7876127601856155E1
374 362 -8.378252265216439
374 363 3.059665049784557
374 366 1.4327407935549335E1
374 367 -2.7477192433635256E1
374 368 -1.3369560965423464E1
374 374 9.261370146893456E1
374 377 -1.4531098314855928
374 378 1.178655854831891
374 379 -4.5939014998400035E-1
374 380 -2.8980829035454576E-2
374 383 -2.9338311635409327E-15
374 384 -5.878086492112181
374 385 -4.7314851949805575E-1
374 386 5.708192233635467
374 387 4.5939014998399863E-1
374 388 -3.11107609948022E-1
374 389 -3.1215324172446235
374 392 1.8340665324231131
374 395 6.74597714135586E-1
374 396 -6.4086384900042574
374 397 9.57262604422175E-2
374 412 1.8458286844360186
374 413 1.5103355466968251
374 414 2.5810337789052658
374 428 7.990963582200366E-1
374 429 1.88336336604447
374 430 -3.963513603616304E-1
374 441 -6.958361516919084
374 442 3.6364051864885454
374 443 -7.878566149607814
374 444 1.3403895606397993E-3
374 448 -7.653652667676134E-1
374 449 -6.53536748542175
374 450 -5.249668401790006E-1
374 451 1.2641526048902108
374 452 -2.696221183610697
374 453 -1.0056432111391964
374 454 1.034885299096231E-1
375 350 -6.809633323587359E-1
375 351 -1.099127224339162E-1
375 352 -6.31822547372056E-1
375 356 -1.1790633097732803E-1
375 357 3.466230278850928E-1
375 358 1.3268273494831553
375 368 4.132705318105522E-1
375 375 1.2438968717791345E1
375 376 -1.018702447833529E1
375 388 -1.296196992326477
375 389 4.0217351629540543E-1
375 392 -9.006555474963465E-2
375 418 -6.681202904387903E-2
375 419 -2.8815155999431727E-2
375 420 -2.72518556688158E-1
375 437 5.511553471181726E-1
375 438 2.295205933371261
375 439 -6.932460557701854E-1
375 440 -2.6536546989663097
375 451 -4.790749726102841E-1
375 452 -4.6621099612329814E-1
376 356 -2.0991662173620966
376 357 -6.187655344350814E-1
376 358 6.518410964193297E-2
376 368 1.9150954021858153
376 375 -1.018702447833529E1
376 376 2.6158465058588533E1
376 388 7.176727353423713E-1
376 389 8.560962386067034E-2
376 392 -6.184408794687268
376 395 -4.994370009562242
376 418 -3.6266686321150807
376 419 2.8391702564289506E-1
376 420 2.018715570847201
376 434 -4.669222969855756E-1
376 435 8.992460057258003E-1
376 436 -1.1280935850563323
376 437 -9.8491272243832E-1
376 438 -2.65365469896631
376 439 2.9752735849943313E-3
376 440 3.504976892468888E-1
376 445 6.824226351166501E-1
376 446 -2.326537725367052
376 447 -8.440016424605463E-1
376 451 -2.6893062668381545E-1
376 452 6.085633236563366E-1
376 453 1.0979129017847629
376 454 1.4971796092301588
377 166 -1.8569519148753262
377 182 -1.4419967333924305E1
377 183 -1.7891855306787205
377 184 1.5153742834253678
377 191 -3.197048097183666
377 192 8.78375656719842E-1
377 193 -3.2024885412456605
377 342 -2.224345052762435
377 343 1.068217960469631
377 344 -1.0124190385137886
377 345 1.328654207298624
377 346 -1.0122870098703338
377 353 -1.5412469060707632
377 354 -3.061217971996494
377 355 -1.6384414704197583
377 359 -5.998223179901869
377 360 5.218435882489697E-1
377 361 -1.3253919552235467
377 362 3.4179050355491274
377 363 -3.417295810770449
377 364 6.2814183462713435
377 366 2.493436683635724
377 367 -3.8397744078587137
377 368 5.114489010894817E-1
377 369 1.212801283181232
377 371 -6.117916067626655
377 372 3.5672078161619964
377 373 1.5163741136956888
377 374 -1.4531098314855928
377 377 6.073606092656247E1
377 378 -4.067972380217525
377 379 -1.1615869050920893
377 380 -1.688798498242047E1
377 381 -1.2754882953063982E1
377 382 1.2062066318556333
377 384 -8.473723456005958
377 385 1.2795272617332718
377 386 6.152040184134579
377 387 -3.2814752096500055E-1
377 388 2.380863141803207
377 389 3.5306360622106596
377 390 5.021563087296087
377 391 -1.8093099477834444
377 396 -3.9604142098938957
377 397 1.9313773045075142
378 246 -2.4494049047736577
378 247 -3.079631606156624E-1
378 248 -3.2519101801437458
378 249 -4.871110041545501E-1
378 270 -1.8191357605604848
378 288 -3.793270198193783
378 289 -1.7805981080088897
378 290 -2.802692336040166E-1
378 294 -2.779051818994382
378 295 1.8660956824343662
378 296 1.8410612664321213
378 303 6.827662576734854E-1
378 304 1.9344093294661575
378 305 -1.084213475500055
378 359 -1.3253919552235465
378 360 -5.995487625754324E-1
378 361 -4.628017414832519E-1
378 362 1.1496404517987595
378 363 7.964220170270213E-1
378 364 -5.118397484803272E-1
378 367 -1.556532592149024
378 374 1.178655854831891
378 377 -4.067972380217525
378 378 4.103081900163986E1
378 379 -9.114070991052301E-1
378 380 -3.63066207708313E-2
378 381 -1.1082116695260547E1
378 382 -1.7359132947195957
378 386 5.87627328384573
378 387 -1.6847292713153441
378 396 -2.0129825744804602E1
378 397 4.453672018130744
378 441 1.3274985873743514
379 246 5.543583352044961E-1
379 247 2.133359814247659E-1
379 248 4.9296653593996254E-1
379 249 1.368969679998283E-1
379 270 -1.0671182304126892E-2
379 288 -2.4539200848094833E-1
379 289 5.093172898651193E-1
379 290 -3.44404278913105
379 294 1.152571273523227
379 295 -6.139693814669446E-1
379 296 -1.7484042675913518
379 303 -1.0842134755000556
379 304 3.083540083802059
379 305 -7.697011597499642E-1
379 359 -2.761967142339538
379 360 -5.538367689805627
379 361 2.3932192249232114
379 362 -1.3871051218210573
379 363 1.804061141680734E-1
379 364 4.224608886491104E-1
379 367 -1.3120749669090284
379 374 -4.5939014998400035E-1
379 377 -1.1615869050920893
379 378 -9.114070991052301E-1
379 379 3.259007696307553E1
379 380 1.1643672922482404
379 381 -2.730606695553003
379 382 -3.7794135489755356
379 386 -1.684729271315345
379 387 -6.257945674345078E-1
379 396 4.453672018130746
379 397 -1.721499200398016E1
379 441 1.3664045758519594E-1
380 248 -2.2811322879002316
380 249 -1.9982692386522936
380 344 -2.20888433170899
380 345 -1.3819135186878804
380 346 1.0528646927450964
380 359 3.417905035549127
380 360 -2.268045338036049
380 361 1.1496404517987597
380 362 -2.930128804269211
380 363 4.1748160240353327E-1
380 368 -1.261682807500407E-1
380 371 -4.942954206242407E-1
380 372 -3.581595363531159
380 373 -1.5771582068482073
380 374 -2.8980829035454576E-2
380 377 -1.688798498242047E1
380 378 -3.63066207708313E-2
380 379 1.1643672922482404
380 380 4.9321247036226794E1
380 388 7.745138307757006
380 389 -1.7442151936726549
380 395 -1.1634102932007126E1
380 396 -1.0598684818007165E1
380 397 1.6816402824153647
380 401 -5.114751413361927E-1
380 402 1.4676827013381752
380 412 -1.2413518809208547E1
380 413 5.65972622418349E-1
380 414 7.602921769052742E-1
380 421 -9.019137559954602E-1
380 441 -1.9984317268477914
380 453 3.4460177120171265
380 454 3.4129556864871553
381 32 3.040752851234627E-1
381 49 3.3755181372057788
381 50 -1.5264898354664114
381 180 -1.2596010631046443E1
381 181 2.9314785172234945
381 182 -8.80339250276379
381 183 -5.164779226813065
381 184 1.158724439607453
381 188 -3.489545115958668
381 189 4.548035259118631E-1
381 190 -3.416314307252257
381 191 9.414672635922358
381 192 -7.047389350167598E-1
381 193 -1.7380866594111808
381 282 -4.483758154317535
381 283 1.8406431991135914
381 284 1.5431126502754118
381 294 -3.0773132770498863
381 295 -1.6011650177220094
381 296 -1.4617416846676272
381 303 -1.4974232942293244
381 304 -2.919463424978654
381 305 1.1739747907507188
381 306 -9.370829294845915E-1
381 359 6.281418346271341
381 360 6.031033159278174E-1
381 361 -5.118397484803258E-1
381 364 -1.3763801936065592
381 367 1.3526375720527435
381 369 -1.3307295190614088
381 377 -1.2754882953063982E1
381 378 -1.1082116695260547E1
381 379 -2.730606695553003
381 381 5.7096158246076286E1
381 382 -1.8678130204557017
381 386 1.548841404921433
381 387 3.697606063595689
381 390 -9.338146733745306
381 391 1.6330524254255963
382 32 2.758079536700538E-1
382 49 3.1326966516959183
382 50 5.506213606855913E-1
382 180 1.919260048565092
382 181 -4.87393647104243
382 182 5.793622198037249E-1
382 183 8.253028268679564E-1
382 184 -5.041934557785291
382 188 -3.4163143072522573
382 189 -4.5851508511931854E-1
382 190 -3.19071243373963E-1
382 191 -1.7380866594111808
382 192 -2.4759084806038736
382 193 3.0295710980269344
382 282 1.1277814692457317
382 283 -3.0971769829693514
382 284 -6.665445473630998
382 294 -1.0526265319370385
382 295 -2.333722028519394
382 296 -5.2547794405447
382 303 1.1739747907507168
382 304 3.3130225022108175
382 305 -5.920060080182163E-1
382 306 -1.52648983546641
382 359 -2.0308628421509662
382 360 -9.262763864679219
382 361 4.117822428672855E-1
382 364 2.726009253281047
382 367 -4.6500132495710045E-1
382 369 1.7656531372692524E-1
382 377 1.2062066318556333
382 378 -1.7359132947195957
382 379 -3.7794135489755356
382 381 -1.8678130204557017
382 382 4.260254298211735E1
382 386 3.697606063595689
382 387 1.9262403549493832
382 390 1.633052425425597
382 391 -1.2319625187728896E1
383 236 -1.136215470371853
383 237 -7.103412510418483E-1
383 238 1.1734528344309298
383 239 -2.1255457269053415
383 240 1.7790967194652927
383 250 2.9624270275978204E-1
383 255 8.780515884471068E-1
383 269 9.605516578934941E-1
383 274 -9.695984456568838E-1
383 275 -1.4977202128847669
383 276 1.8744563055997068
383 277 5.488011080096205E-2
383 319 -2.391848618766065
383 320 -1.9704581597099118
383 374 -2.9338311635409327E-15
383 383 1.894346800441692E1
383 396 -9.289012336377835
383 397 -1.0252417121292201E-15
383 428 -1.4074392077279727
383 429 -8.239491562069311E-1
383 430 -1.3836946064866538
383 442 -1.0956864313830847
383 443 -1.2091706990346416
383 444 5.048039873959979E-2
384 191 -1.1942788900606931E1
384 192 -3.6028166486450686E-2
384 193 1.6871142578202902
384 347 -4.013389576869865E-1
384 348 -1.3346070316677678
384 349 -1.0682179604696296
384 350 -2.173788658915808
384 351 8.564310887595068E-1
384 352 9.960469426822355E-1
384 353 -5.761203548907683
384 354 -4.162841348866027
384 355 1.6384414704197565
384 356 6.15786149834578E-1
384 357 2.133768505840897
384 358 2.7931205009520163E-2
384 359 2.4934366836357245
384 360 1.279527261733271
384 366 -5.916221087769778
384 367 2.8900767435123913
384 368 2.800327588823796
384 369 3.7471098147262825
384 371 2.5542445239252807
384 372 2.4066337016036066
384 373 -1.5277810532025295
384 374 -5.878086492112181
384 377 -8.473723456005958
384 384 5.133369640966777E1
384 385 -3.0738082474922317
384 386 -1.271339463681652E1
384 387 1.4897344260570895
384 388 -2.0138900316966797E1
384 389 -1.207143139780752E-1
384 390 -3.8666599328839344
384 391 6.031033159278154E-1
384 396 1.0968071325363E1
384 397 -1.9313773045075129
385 191 2.7546104382355097
385 192 1.1534196602094246E-1
385 193 -4.596248671155895
385 347 -5.220708036630437E-1
385 348 -1.7017080196271028E-1
385 349 4.695063665512935E-1
385 350 4.9058890478367234E-1
385 351 -1.354247569711803
385 352 -2.9690061295076204
385 353 1.638441470419756
385 354 2.5121175563919476
385 355 -5.253348497317989
385 356 2.7931205009520475E-2
385 357 8.20805722503136E-1
385 358 1.9108908194439251
385 359 -1.980118446810485
385 360 -1.1881829019501808E1
385 366 1.5731364089119584
385 367 -1.1570111659230666
385 368 3.971339710695446E-1
385 369 -2.030862842150965
385 371 -1.527781053202529
385 372 1.747023721159557
385 373 6.590032678546749E-1
385 374 -4.7314851949805575E-1
385 377 1.2795272617332718
385 384 -3.0738082474922317
385 385 3.769919640029764E1
385 386 9.276962835404315E-1
385 387 -1.0671561723850479E1
385 388 -1.269964786712476
385 389 -1.0622873648834345E1
385 390 1.2062066318556308
385 391 -3.5221198671492195
385 396 -1.9313773045075129
385 397 8.778390703169835
386 303 -1.8448843227830034
386 304 2.379146622274524
386 305 1.0842134755000543
386 324 -2.4494049047736604
386 325 -1.8191357605604863
386 326 3.0796316061566326E-1
386 335 -3.7932701981937864
386 336 -1.780598108008892
386 337 2.8026923360401657E-1
386 359 -3.8397744078587133
386 360 -3.2814752096499905E-1
386 361 -1.556532592149024
386 364 1.3526375720527428
386 366 2.8900767435123904
386 367 -7.791049401522384
386 368 1.1496404517987597
386 369 1.1380237701690477E-1
386 370 1.866095682434365
386 374 5.708192233635467
386 377 6.152040184134579
386 378 5.87627328384573
386 379 -1.684729271315345
386 381 1.548841404921433
386 382 3.697606063595689
386 384 -1.271339463681652E1
386 385 9.276962835404315E-1
386 386 6.308889657461102E1
386 387 4.280865641735919
386 388 -3.6306620770833575E-2
386 389 -7.964220170270213E-1
386 390 -1.679389042257669E1
386 391 -1.9616927688760923
386 393 -2.779051818994383
386 394 -1.8410612664321206
386 396 -3.3003938342460145E1
386 397 -4.453672018130745
386 448 -3.2519101801437458
386 449 1.3274985873743521
386 450 4.871110041545504E-1
387 303 1.0842134755000556
387 304 -3.08354008380206
387 305 -3.243254739365619
387 324 -5.543583352044958E-1
387 325 1.0671182304127114E-2
387 326 2.1333598142476523E-1
387 335 2.4539200848094755E-1
387 336 -5.093172898651203E-1
387 337 -3.44404278913105
387 359 3.089151258775157
387 360 2.5212760676348185
387 361 -1.3120749669090275
387 364 -4.650013249571001E-1
387 366 -3.2718411643561873E-1
387 367 2.3093070889484835E-1
387 368 1.3871051218210575
387 369 4.2540436307989225E-2
387 370 6.139693814669455E-1
387 374 4.5939014998399863E-1
387 377 -3.2814752096500055E-1
387 378 -1.6847292713153441
387 379 -6.257945674345078E-1
387 381 3.697606063595689
387 382 1.9262403549493832
387 384 1.4897344260570895
387 385 -1.0671561723850479E1
387 386 4.280865641735919
387 387 4.4772303988739566E1
387 388 -1.1643672922482406
387 389 1.8040611416807145E-1
387 390 -9.669993680426849E-1
387 391 -6.380930118010512
387 393 -1.1525712735232265
387 394 -1.7484042675913534
387 396 -4.453672018130746
387 397 -2.3636471269532915E1
387 448 -4.929665359399623E-1
387 449 -1.3664045758519563E-1
387 450 1.3689696799982815E-1
388 350 -1.4338460940423156E-1
388 351 -8.907612626972556E-1
388 352 -1.0359736399276294
388 356 -4.956724890151538
388 357 -2.219300949618137
388 358 -2.90508317242105E-2
388 359 5.114489010894816E-1
388 360 3.53063606221066
388 362 -1.2616828075004002E-1
388 363 -1.7442151936726558
388 366 2.800327588823796
388 367 1.1496404517987602
388 368 -1.744250016889049
388 371 -7.626414186889416E-1
388 372 -2.6317085243808624
388 373 1.5890223953065483
388 374 -3.11107609948022E-1
388 375 -1.296196992326477
388 376 7.176727353423713E-1
388 377 2.380863141803207
388 380 7.745138307757006
388 384 -2.0138900316966797E1
388 385 -1.269964786712476
388 386 -3.6306620770833575E-2
388 387 -1.1643672922482406
388 388 5.511752618928124E1
388 389 3.108330417922804
388 392 -1.4610167418603652E1
388 395 -9.850124147491773
388 396 -1.188562167187936E1
388 397 -1.6915742137128105
388 437 4.1327053181055234E-1
388 438 8.382032069972517E-1
388 439 1.915095402185816
388 440 8.560962386067048E-2
388 448 -2.2811322879002294
388 449 -1.9984317268477916
388 450 1.998269238652294
388 451 8.070948922313398E-2
388 452 -7.67922682705882E-1
388 453 3.051236006199616
388 454 -3.4470023042463236
389 350 -5.102542376448935E-1
389 351 -4.1412770324382675E-1
389 352 6.837092776816336E-1
389 356 -2.9050831724210063E-2
389 357 -8.537078480710528E-1
389 358 -6.303744032692598
389 359 -1.6069953366453644
389 360 2.3501013547220877
389 362 4.4320804584726653E-1
389 363 -4.0752083591549293E-1
389 366 2.3279530688688516E-1
389 367 3.9815642340861895E-1
389 368 1.0110161755572947E-1
389 371 1.5890223953065474
389 372 2.757612102182369
389 373 -2.4186193496722366E-1
389 374 -3.1215324172446235
389 375 4.0217351629540543E-1
389 376 8.560962386067034E-2
389 377 3.5306360622106596
389 380 -1.7442151936726549
389 384 -1.207143139780752E-1
389 385 -1.0622873648834345E1
389 386 -7.964220170270213E-1
389 387 1.8040611416807145E-1
389 388 3.108330417922804
389 389 3.624073160930343E1
389 392 -1.6615873602098377
389 395 -3.4470023042463214
389 396 -1.6915742137128102
389 397 -9.085065859343059
389 437 -9.652988119273055E-1
389 438 -2.0126739195217995
389 439 5.331667694207054E-1
389 440 1.4655704944151262
389 448 1.2850484566197382
389 449 2.3466180520941343E-1
389 450 -8.677280619787548E-1
389 451 1.3310340329691306E-1
389 452 -5.740161889470661
389 453 2.127856643324272
389 454 -5.638888667566417
390 49 3.600057189547375
390 50 1.5264898354664123
390 188 -1.3774533023376776E1
390 189 -1.5221962075789761
390 190 4.848357900287635E-1
390 191 -8.651259301189555
390 192 -5.098017583837448
390 193 5.793622198037223E-1
390 297 -4.4837581543175435
390 298 -1.5431126502754111
390 303 1.0302272862271618
390 304 -3.3642007177870203
390 305 -1.1739747907507174
390 306 1.440078165236998
390 359 1.2128012831812311
390 360 -1.8093099477834462
390 364 -1.3307295190614084
390 365 1.8406431991135919
390 366 3.7471098147262842
390 367 1.1380237701690427E-1
390 369 2.4018951824014754
390 370 -1.6011650177220083
390 377 5.021563087296087
390 381 -9.338146733745306
390 382 1.633052425425597
390 384 -3.8666599328839344
390 385 1.2062066318556308
390 386 -1.679389042257669E1
390 387 -9.669993680426849E-1
390 390 5.249369230637944E1
390 391 -1.3982918303954903
390 393 -3.07731327704988
390 394 1.4617416846676234
391 49 -3.1326966516959205
391 50 2.9134999395131276
391 188 1.4970542586871665
391 189 1.8270713144926726E-1
391 190 -5.82497881523282
391 191 1.1587244396074499
391 192 1.6506056537359115
391 193 -4.963335515531839
391 297 -1.1277814692457315
391 298 -6.6654454736309985
391 303 -1.173974790750717
391 304 -3.3130225022108184
391 305 1.881547571597429
391 306 1.5264898354664116
391 359 3.0462942632264447
391 360 2.218524130380767
391 364 1.7656531372692533E-1
391 365 3.0971769829693496
391 366 -1.0154314210754825
391 367 5.321908208981466E-2
391 369 -3.079139880734885
391 370 2.3337220285193925
391 377 -1.8093099477834444
391 381 1.6330524254255963
391 382 -1.2319625187728896E1
391 384 6.031033159278154E-1
391 385 -3.5221198671492195
391 386 -1.9616927688760923
391 387 -6.380930118010512
391 390 -1.3982918303954903
391 391 3.791764277633766E1
391 393 1.0526265319370354
391 394 -5.254779440544692
392 368 8.070948922313403E-2
392 374 1.8340665324231131
392 375 -9.006555474963465E-2
392 376 -6.184408794687268
392 388 -1.4610167418603652E1
392 389 -1.6615873602098377
392 392 3.8833546682536124E1
392 395 3.957471528462363E-1
392 396 2.750914856000386
392 397 1.6962066523169002
392 418 -9.00212531920823E-1
392 419 1.491936080474373
392 420 3.4163957225426606E-1
392 422 5.836327837384284E-1
392 423 -1.9806860655971054E-1
392 424 1.5515333948518897
392 431 -8.830073081117554
392 432 -1.753828945726603
392 433 9.722939041483033E-1
392 437 -4.7907497261028437E-1
392 438 -9.716690340218624E-1
392 439 -2.6893062668381673E-1
392 440 6.085633236563367E-1
392 442 -1.781832884034264
392 443 -1.9887567668736104
392 444 -2.515237965415561
392 445 -3.7008229876141456
392 446 2.412004780062994
392 447 -2.7058173132545544
392 448 -6.466258222393836
392 449 -1.3626397574021964
392 450 4.1144348752105064E-1
392 451 1.6795363637199796
392 452 3.232731399100708E-2
392 453 -1.4469535700473724
392 454 2.240304024162062
393 297 -5.421672731417511
393 298 1.4881286883294624
393 299 -3.0103878589830624E-1
393 303 -4.041145776763976
393 304 1.8517435561556243E-16
393 305 6.039713127933296E-16
393 335 -3.7313451795255794
393 336 -1.937829533862961
393 337 5.431070854750619E-1
393 338 -8.429807743049682E-1
393 365 6.074355906701189E-1
393 367 1.8660956824343649
393 369 -1.6011650177220083
393 370 1.745707725905603E-1
393 386 -2.779051818994383
393 387 -1.1525712735232265
393 390 -3.07731327704988
393 391 1.0526265319370354
393 393 1.9893509558056298E1
393 394 -1.6302522463200273
393 580 8.908925058899247E-1
394 297 2.3910180142054527
394 298 -2.5093370532290864
394 299 -7.803183218848982E-1
394 303 5.418088108115653E-16
394 304 2.3927469232326516E-16
394 305 -1.0102864441909938E1
394 335 -2.7802794808174736E-1
394 336 -3.9485530702666677E-1
394 337 -7.627151347994751E-1
394 338 -1.0341823803918127E-1
394 365 -7.402486930102747E-1
394 367 1.2815773435148075
394 369 3.2232367717610404
394 370 -2.701464318219375
394 386 -1.8410612664321206
394 387 -1.7484042675913534
394 390 1.4617416846676234
394 391 -5.254779440544692
394 393 -1.6302522463200273
394 394 2.1158418659959445E1
394 580 -6.682457970195317E-1
395 344 7.704339844624695E-1
395 345 -1.0208844826087733
395 346 1.5108580221408547
395 356 -2.03395469056984
395 357 -1.9047148941225007
395 358 -1.7182186984449448
395 362 3.4460177120171256
395 363 3.412955686487154
395 368 3.0512360061996153
395 371 -9.131030588841885
395 372 1.456700286508457
395 373 -3.583038241891512E-1
395 374 6.74597714135586E-1
395 376 -4.994370009562242
395 380 -1.1634102932007126E1
395 388 -9.850124147491773
395 389 -3.4470023042463214
395 392 3.957471528462363E-1
395 395 4.805794197236786E1
395 396 9.13662884348945
395 397 6.724225591655228E-2
395 401 -1.6058294154146133
395 402 3.5575846327575844E-1
395 412 -3.653863415210079
395 413 -1.9290481408835367
395 414 -3.941534620892959
395 415 -6.48035573687749
395 416 1.7270150075977044
395 417 -2.316347972301285
395 421 -7.629621338982826E-1
395 434 -1.4622276307802835
395 435 1.6437149419153474
395 436 4.3243917663558834E-1
395 439 1.389579568450222
395 440 1.4971796092301588
395 442 2.148296138324582
395 443 -3.6266754062413495
395 444 7.143937152187068E-1
395 445 -9.663189524735275
395 446 6.755410324009519E-1
395 447 3.223379897533496E-1
395 451 -1.4469535700473717
395 452 2.240304024162062
395 453 -4.491884238597234
395 454 2.346659074428518
396 236 -1.6256322956956297
396 237 8.921742947544224E-1
396 238 -2.7001105662531466
396 239 4.169004056334054E-1
396 240 -1.9540643317132291
396 246 -7.017433409634086
396 247 -3.464761620153137
396 248 -6.114997589182867
396 249 -2.737563297187192
396 250 -1.511821578227251E-15
396 255 -1.71469629827802
396 269 -1.5901537723218735
396 270 -7.763412019601446E-1
396 274 -4.131450840870842E-15
396 275 -4.609856164516447
396 276 -2.5507633542351176
396 277 1.1005501436557913E-1
396 288 3.225469061703156
396 289 1.7530715757117783
396 290 2.6729143452885493
396 303 -9.194615918095181
396 304 3.385847725323992
396 305 -5.551115123125783E-17
396 319 1.0490737959739935
396 320 2.0169732942901306
396 324 -6.965833430600605
396 325 -5.296293046996468E-1
396 326 2.9110944823556224
396 335 3.2254690617031625
396 336 1.753071575711779
396 337 -2.6729143452885484
396 339 2.725283831620473
396 340 -6.55531362180756E-1
396 341 4.1206167186491505E-2
396 359 -1.4531098314855933
396 360 1.931377304507513
396 361 1.1786558548318895
396 362 -2.8980829035453987E-2
396 363 1.6816402824153645
396 366 -5.87808649211218
396 367 5.708192233635465
396 368 -3.1110760994802117E-1
396 374 -6.4086384900042574
396 377 -3.9604142098938957
396 378 -2.0129825744804602E1
396 379 4.453672018130746
396 380 -1.0598684818007165E1
396 383 -9.289012336377835
396 384 1.0968071325363E1
396 385 -1.9313773045075129
396 386 -3.3003938342460145E1
396 387 -4.453672018130746
396 388 -1.188562167187936E1
396 389 -1.6915742137128102
396 392 2.750914856000386
396 395 9.13662884348945
396 396 1.0754160134007485E2
396 397 6.026261623333509E-1
396 412 2.3999831514298164
396 413 1.8458286844360203
396 414 -1.7577387769658368
396 428 -9.266135618460221E-1
396 429 7.990963582200372E-1
396 430 2.650388460058934
396 441 -7.986039226439459E-1
396 442 -1.2565981693092194E1
396 443 3.6364051864885463
396 444 1.1031415017254775E-1
396 448 -5.550934486905675
396 449 -7.653652667676141E-1
396 450 2.4180658845738816
396 451 1.8340665324231136
396 452 1.696206652316899
396 453 6.745977141355858E-1
396 454 6.724225591655256E-2
397 236 -2.700110566253146
397 237 3.937706723734238E-1
397 238 -4.806649670337607E-1
397 239 -1.9540643317132285
397 240 1.6512975734222812
397 246 -3.464761620153137
397 247 -1.5101541628884968E1
397 248 -2.737563297187192
397 249 -1.1803535335862481E1
397 250 -3.7156049345511364
397 255 -3.0008943538435406E-1
397 269 3.320130254822398E-1
397 270 -4.014950874989563
397 274 -9.701541090684137E-16
397 275 1.1005501436557709E-1
397 276 1.7062012936090998E-3
397 277 -1.4111562115203824E-1
397 288 2.67291434528855
397 289 -2.3856245323027045
397 290 -7.5147244360239E-1
397 303 5.551115123125783E-17
397 304 -9.454242944073599E-17
397 305 -2.856782637088787E-1
397 319 2.0169732942901315
397 320 1.9503876872352854
397 324 2.911094482355623
397 325 3.9589050050538472
397 326 -1.5297136406193239E1
397 335 -2.6729143452885498
397 336 2.3856245323027045
397 337 -7.514724436023855E-1
397 339 4.120616718649189E-2
397 340 -3.9422201718575245E-4
397 341 2.4290369081065752
397 359 4.7314851949805603E-1
397 360 3.060965635672639E-1
397 361 -4.5939014998400074E-1
397 362 3.059665049784556
397 363 -7.3872134555048605
397 366 -4.7314851949805586E-1
397 367 4.593901499839991E-1
397 368 -3.121532417244623
397 374 9.57262604422175E-2
397 377 1.9313773045075142
397 378 4.453672018130744
397 379 -1.721499200398016E1
397 380 1.6816402824153647
397 383 -1.0252417121292201E-15
397 384 -1.9313773045075129
397 385 8.778390703169835
397 386 -4.453672018130745
397 387 -2.3636471269532915E1
397 388 -1.6915742137128105
397 389 -9.085065859343059
397 392 1.6962066523169002
397 395 6.724225591655228E-2
397 396 6.026261623333509E-1
397 397 9.829066070837999E1
397 412 -1.7577387769658372
397 413 2.581033778905267
397 414 1.4467091223969892
397 428 2.6503884600589327
397 429 -3.9635136036163154E-1
397 430 -3.186277741753525E-1
397 441 5.268574209816351E-1
397 442 1.1031415017254739E-1
397 443 1.3403895606396731E-3
397 444 -3.5626263418090596
397 448 2.4180658845738825
397 449 -5.249668401790006E-1
397 450 -1.165906308384282E1
397 451 -2.6962211836106977
397 452 1.633193598560946
397 453 1.0348852990962293E-1
397 454 4.706508967940332
398 398 5.854013506521578
398 399 -1.3393935982201852
398 400 1.988252791142367
398 401 -3.9116344688656135E-1
398 402 -3.2970948865339716E-1
398 403 9.004133662963835E-1
398 404 -1.2349352572374107E-2
398 405 3.3311841926539465E-1
398 406 -1.1639619032807083
398 407 6.6342423357563E-1
398 408 -6.517443276259438E-2
398 409 -1.1098525171730649
398 410 -4.262758487194368E-2
398 411 -1.4880952380800921E-1
398 412 -1.0501940380607017E-1
398 413 8.893070017532217E-1
398 414 -1.991488145017138E-1
398 415 -4.7153945544574185
398 416 4.9533597314781325E-1
398 417 -1.85807257326341
398 421 2.5406087484444695E-1
398 434 7.309649527858615E-1
398 435 -3.2398718415876504E-1
398 436 -3.0422674091648155E-1
399 398 -1.3393935982201852
399 399 5.810266758778735
399 400 -2.0904325159680734
399 401 -5.439858304126899E-2
399 402 4.34769269947608E-1
399 403 -7.484935257173787E-2
399 404 7.129133662977893E-1
399 405 -7.085482473947543E-1
399 406 1.4259090024192056E-1
399 407 -2.706776762992407
399 408 1.918556966047531
399 409 -1.2596091820443187E-1
399 410 -1.3598525171715017
399 411 -2.1372271853086714E-13
399 412 8.893070017532214E-1
399 413 -9.53858747580679E-2
399 414 -1.3396001871224228E-1
399 415 1.0786693064808863
399 416 -2.932744959739541
399 417 8.949036172017426E-1
399 421 -3.7398227991971233E-1
399 434 -5.159647564384046E-1
399 435 1.3681071963738406E-1
399 436 4.934624787457231E-1
400 398 1.988252791142367
400 399 -2.0904325159680734
400 400 7.572611358396206
400 401 -1.819688158573989E-1
400 402 -4.959903932412606E-1
400 403 2.4831477663920892E-1
400 404 -2.7251855669039404E-1
400 405 2.212855502319401
400 406 4.5565890056543706E-1
400 407 1.9185569660475335
400 408 -2.5379461753425963
400 409 -7.440476190411395E-2
400 410 -2.1628101777802953E-13
400 411 -2.7078071610056194
400 412 -7.943869097336622E-1
400 413 4.6127807652910585E-1
400 414 1.6532766737616869
400 415 -1.8580725732634098
400 416 2.996655219603944E-1
400 417 -6.278224683790107
400 421 9.187504401285901E-1
400 434 2.1660659241157187E-1
400 435 1.7944090136291108E-1
400 436 -8.335159544675625E-1
401 344 -1.7821234780077737
401 345 -1.951711880671823E-1
401 346 -3.383157012150003E-1
401 362 1.467682701338175
401 363 -4.658840652936144E-1
401 380 -5.114751413361927E-1
401 395 -1.6058294154146133
401 398 -3.9116344688656135E-1
401 399 -5.439858304126899E-2
401 400 -1.819688158573989E-1
401 401 9.114442436081223
401 402 5.541557121479364E-1
401 412 -2.323690255648204
401 413 -1.701379594774731
401 414 5.40066079336189E-1
401 415 -2.5001606987878775
401 416 -1.5133660526656048E-1
401 417 1.4352716557770289
401 421 -2.2620701884892114E-1
401 453 8.044755766363071E-2
401 454 -7.62962133898283E-1
402 344 3.227391010482574E-1
402 345 -8.39957326470367E-3
402 346 -3.140686221853225E-1
402 362 -2.2730027908519688
402 363 5.685169309243182E-1
402 380 1.4676827013381752
402 395 3.5575846327575844E-1
402 398 -3.2970948865339716E-1
402 399 4.34769269947608E-1
402 400 -4.959903932412606E-1
402 401 5.541557121479364E-1
402 402 9.9358960054864
402 412 -1.7013795947747314
402 413 -4.656587440196914
402 414 1.083956205609328
402 415 -6.692468943819995E-1
402 416 -1.062743272459036
402 417 7.976327804699381E-1
402 421 -3.6715380377943183
402 453 -2.3699321986613855
402 454 2.031491136217318
403 231 8.444072404000741E-1
403 232 6.199125316606363E-2
403 233 5.198239150079921E-1
403 241 -1.7254692099224853
403 242 2.1900437341442328E-1
403 243 -5.55915935807598E-1
403 248 -2.1026656101347947
403 249 -9.709485539291047E-1
403 398 9.004133662963835E-1
403 399 -7.484935257173787E-2
403 400 2.4831477663920892E-1
403 403 2.198286356960425E1
403 404 2.4806935387571746E-1
403 405 5.066667405648231
403 409 -2.0483182140149342E1
403 410 -4.3800874682884644E-1
403 411 -3.6500728902403954
403 412 5.836327839059156E-1
403 413 -1.9806860655615874E-1
403 414 -6.578687173183335E-1
403 441 1.8186172550053853E-1
404 231 -6.300874683266391E-2
404 232 4.2772008717599586E-1
404 233 -5.936089150787467E-1
404 241 1.5650437341505963E-1
404 242 -1.7527815624672851
404 243 1.2465787216647828
404 248 1.8186172550053833E-1
404 249 4.1764666467625117E-1
404 398 -1.2349352572374107E-2
404 399 7.129133662977893E-1
404 400 -2.7251855669039404E-1
404 403 2.4806935387571746E-1
404 404 2.15955147136876E1
404 405 2.149925403793084
404 409 -3.1300874683011887E-1
404 410 -2.0428557435059744E1
404 411 -2.493157443329566
404 412 -1.9806860655615857E-1
404 413 8.787843720406916E-1
404 414 -4.548658750354118E-1
404 441 -1.433593541675048
405 231 3.718219258558835E-1
405 232 -1.1872178301604236E-1
405 233 1.9989180841138725
405 241 1.137269213282675E-1
405 242 1.246578721664783
405 243 -5.082418768411995
405 248 -1.7253950536911573
405 249 -2.984399624114214
405 398 3.3311841926539465E-1
405 399 -7.085482473947543E-1
405 400 2.212855502319401
405 403 5.066667405648231
405 404 2.149925403793084
405 405 5.0957715799454974E1
405 409 -2.60840622358433
405 410 -2.4931574433295665
405 411 -4.96704638631618E1
405 412 -1.5515333948222891
405 413 -9.297530070981176E-1
405 414 2.5677928697997654
405 441 8.53676355380613E-1
406 236 2.4217895004246748E-1
406 237 1.5422251187496638E-1
406 238 1.4954645003853984E-1
406 241 -4.640899876239436E-1
406 242 -3.5484499577411366E-1
406 243 -7.682736587240613E-2
406 248 -3.414763023560073E-1
406 249 9.124846198227591E-1
406 398 -1.1639619032807083
406 399 1.4259090024192056E-1
406 400 4.5565890056543706E-1
406 406 8.949935361779715E1
406 407 1.243571399872884
406 408 2.0847191847340763E1
406 409 -7.119985319064779E1
406 410 -1.46207287584943
406 411 -1.7127630861725724E1
406 412 -1.2273539626389866E1
406 413 -1.1256810844355686E-1
406 414 -5.875069638773969E-1
406 415 -8.835294155547263E-2
406 416 -2.3746684358908583
406 417 -5.641546223967899E-1
406 434 1.9742151526546274
406 435 -1.376169269276819E-1
406 436 5.753305062755227E-1
406 441 1.6736190809282603
406 442 -3.281644936430807
406 443 1.5293814736784292
406 444 -2.1283797213012594
406 445 -2.902828832209654
406 446 -3.016140237108202E-1
406 447 -2.4557127888694477
407 236 -3.4542740436117897E-1
407 237 -1.4982677927388142
407 238 7.569863737633498E-1
407 241 -4.590116624397265E-1
407 242 -7.441032623565939E-1
407 243 -1.4246613961885228
407 248 1.6736190809282578
407 249 7.747838042917543E-2
407 398 6.6342423357563E-1
407 399 -2.706776762992407
407 400 1.9185569660475335
407 406 1.243571399872884
407 407 8.234932735660882E1
407 408 7.203072065714454
407 409 -1.5870728758481565
407 410 -6.8856435318556E1
407 411 -8.54796837712816
407 412 -1.125681084435561E-1
407 413 -5.95684140598091
407 414 7.566827306636899E-1
407 415 -2.3746684358908587
407 416 7.065751000685182E-1
407 417 -1.1678484833684815
407 434 5.748130563189752E-1
407 435 2.358337300681551E-1
407 436 -8.666027131769805E-1
407 441 3.345338923546975E-1
407 442 9.836181570967499E-1
407 443 -2.3288814745140276
407 444 1.2434637354321716
407 445 -2.6029744080902056E-1
407 446 -1.5349640619614464
407 447 5.084071781177088E-2
408 236 4.045435884892013E-1
408 237 7.569863737633518E-1
408 238 1.1908161073945162E-1
408 241 -5.976606992004787E-1
408 242 -1.4246613961885228
408 243 -3.451980714268588E-1
408 248 9.12484619822755E-1
408 249 8.728691266311996E-1
408 398 -6.517443276259438E-2
408 399 1.918556966047531
408 400 -2.5379461753425963
408 406 2.0847191847340763E1
408 407 7.203072065714454
408 408 1.805370974222036E2
408 409 -1.816929752838178E1
408 410 -8.54796837712816
408 411 -1.6540844060413855E2
408 412 -5.875069638774026E-1
408 413 7.566827306636863E-1
408 414 -7.64264039057007
408 415 -5.641546223967904E-1
408 416 -1.1678484833684808
408 417 2.233253420526155
408 434 9.409977452496887E-1
408 435 -8.666027131769808E-1
408 436 9.062597756687655E-1
408 441 7.747838042917905E-2
408 442 -1.4523802936193166
408 443 1.243463735432172
408 444 -4.507681876601644
408 445 -1.669043260664047
408 446 5.084071781177116E-2
408 447 -4.226654237689436
409 241 9.718352248485673E-1
409 242 6.813744243582391E-2
409 243 2.9822469860801804E-1
409 248 7.445849365333E-1
409 249 2.632474814839288E-13
409 398 -1.1098525171730649
409 399 -1.2596091820443187E-1
409 400 -7.440476190411395E-2
409 403 -2.0483182140149342E1
409 404 -3.1300874683011887E-1
409 405 -2.60840622358433
409 406 -7.119985319064779E1
409 407 -1.5870728758481565
409 408 -1.816929752838178E1
409 409 9.298946713783752E1
409 410 1.9798222829259853
409 411 2.055388381526221E1
409 412 -1.9129994512491768
409 413 -2.678557443910422E-1
409 414 -2.675470903572374E-13
409 441 2.4593855991194044E-1
410 241 -1.5195890896664122E-2
410 242 6.382533573290529E-1
410 243 3.561653490467741E-1
410 248 2.4593855991194158E-1
410 249 1.911122189718896E-14
410 398 -4.262758487194368E-2
410 399 -1.3598525171715017
410 400 -2.1628101777802953E-13
410 403 -4.3800874682884644E-1
410 404 -2.0428557435059744E1
410 405 -2.4931574433295665
410 406 -1.46207287584943
410 407 -6.8856435318556E1
410 408 -8.54796837712816
410 409 1.9798222829259853
410 410 9.053207371008736E1
410 411 1.0684960471411168E1
410 412 -2.678557443910426E-1
410 413 -1.4754507699131694
410 414 -1.768808405089911E-14
410 441 9.499689732840175E-1
411 241 3.726294605119107E-1
411 242 3.561653490467712E-1
411 243 2.0954784425733477
411 248 2.6739013886581324E-13
411 249 2.4863354111406926
411 398 -1.4880952380800921E-1
411 399 -2.1372271853086714E-13
411 400 -2.7078071610056194
411 403 -3.6500728902403954
411 404 -2.493157443329566
411 405 -4.96704638631618E1
411 406 -1.7127630861725724E1
411 407 -8.54796837712816
411 408 -1.6540844060413855E2
411 409 2.055388381526221E1
411 410 1.0684960471411168E1
411 411 2.1635363058704803E2
411 412 -2.605055034395803E-13
411 413 -1.3173911821487665E-14
411 414 -3.1487328124560365
411 441 1.4718148013101457E-14
412 248 -7.169090388617023
412 249 -5.290472613131214E-1
412 362 5.659726224183501E-1
412 363 1.65395685440923
412 374 1.8458286844360186
412 380 -1.2413518809208547E1
412 395 -3.653863415210079
412 396 2.3999831514298164
412 397 -1.7577387769658372
412 398 -1.0501940380607017E-1
412 399 8.893070017532214E-1
412 400 -7.943869097336622E-1
412 401 -2.323690255648204
412 402 -1.7013795947747314
412 403 5.836327839059156E-1
412 404 -1.9806860655615857E-1
412 405 -1.5515333948222891
412 406 -1.2273539626389866E1
412 407 -1.125681084435561E-1
412 408 -5.875069638774026E-1
412 409 -1.9129994512491768
412 410 -2.678557443910426E-1
412 411 -2.605055034395803E-13
412 412 4.095095698938018E1
412 413 9.461469877331531E-1
412 414 1.6756469971081955
412 415 -4.70612678090029
412 416 3.167017749020391
412 417 3.8920074926383663E-1
412 421 1.0455241172347531
412 441 -1.7794188404815983
412 442 -2.8159841520101057
412 443 -1.0529242246482604
412 444 1.4164563798583658
412 445 3.4392593583234374
412 446 -3.730097851822487E-1
412 447 2.980962829731152
412 453 -1.9290481408835374
412 454 -3.9415346208929596
413 248 -1.7794188404815976
413 249 -4.362236015044202
413 362 -4.180850496854181
413 363 -1.8062530496274076E-1
413 374 1.5103355466968251
413 380 5.65972622418349E-1
413 395 -1.9290481408835367
413 396 1.8458286844360203
413 397 2.581033778905267
413 398 8.893070017532217E-1
413 399 -9.53858747580679E-2
413 400 4.6127807652910585E-1
413 401 -1.701379594774731
413 402 -4.656587440196914
413 403 -1.9806860655615874E-1
413 404 8.787843720406916E-1
413 405 -9.297530070981176E-1
413 406 -1.1256810844355686E-1
413 407 -5.95684140598091
413 408 7.566827306636863E-1
413 409 -2.678557443910422E-1
413 410 -1.4754507699131694
413 411 -1.3173911821487665E-14
413 412 9.461469877331531E-1
413 413 3.61574980219705E1
413 414 2.8790294207882567
413 415 3.1670177490203906
413 416 -7.786234266474198
413 417 -8.858920466356572E-1
413 421 1.9523775587433454
413 441 -1.2747024479028934E1
413 442 -1.0529242246482622
413 443 -2.6722345124430644
413 444 2.1400857217442395
413 445 -3.7300978518224875E-1
413 446 3.860478871143732
413 447 -1.9358361025369568
413 453 -2.8364875662023143
413 454 -2.476144811096213
414 248 -6.188273186465041E-1
414 249 -9.502837002078985
414 362 -6.027434178409648E-2
414 363 -4.3692354706958
414 374 2.5810337789052658
414 380 7.602921769052742E-1
414 395 -3.941534620892959
414 396 -1.7577387769658368
414 397 1.4467091223969892
414 398 -1.991488145017138E-1
414 399 -1.3396001871224228E-1
414 400 1.6532766737616869
414 401 5.40066079336189E-1
414 402 1.083956205609328
414 403 -6.578687173183335E-1
414 404 -4.548658750354118E-1
414 405 2.5677928697997654
414 406 -5.875069638773969E-1
414 407 7.566827306636899E-1
414 408 -7.64264039057007
414 409 -2.675470903572374E-13
414 410 -1.768808405089911E-14
414 411 -3.1487328124560365
414 412 1.6756469971081955
414 413 2.8790294207882567
414 414 3.4623143353608604E1
414 415 3.89200749263837E-1
414 416 -8.858920466356565E-1
414 417 -4.929119845520263
414 421 -2.2469849549757237
414 441 -3.493814661910183
414 442 1.416456379858364
414 443 2.1400857217442395
414 444 -3.827932396132068
414 445 2.9809628297311517
414 446 -1.9358361025369573
414 447 2.7480499674650103
414 453 -2.4761448110962134
414 454 -7.371489114603116
415 395 -6.48035573687749
415 398 -4.7153945544574185
415 399 1.0786693064808863
415 400 -1.8580725732634098
415 401 -2.5001606987878775
415 402 -6.692468943819995E-1
415 406 -8.835294155547263E-2
415 407 -2.3746684358908587
415 408 -5.641546223967904E-1
415 412 -4.70612678090029
415 413 3.1670177490203906
415 414 3.89200749263837E-1
415 415 2.491145187764474E1
415 416 -3.32645227151064
415 417 1.613656540835635
415 421 1.435271655777028
415 434 -8.36402633853006
415 435 1.3750929476666445
415 436 9.609915569059639E-1
415 445 1.9429651734638709
415 446 -3.940940756490559E-1
415 447 3.3945466517902056E-1
415 453 1.1436816742646325
415 454 -2.316347972301285
416 395 1.7270150075977044
416 398 4.9533597314781325E-1
416 399 -2.932744959739541
416 400 2.996655219603944E-1
416 401 -1.5133660526656048E-1
416 402 -1.062743272459036
416 406 -2.3746684358908583
416 407 7.065751000685182E-1
416 408 -1.1678484833684808
416 412 3.167017749020391
416 413 -7.786234266474198
416 414 -8.858920466356565E-1
416 415 -3.32645227151064
416 416 2.1538152220875524E1
416 417 -7.962823463511385E-1
416 421 1.367845661800412E-1
416 434 8.571826585512043E-1
416 435 -5.1147834265138945
416 436 -1.1458811652713983
416 445 -3.9409407564905474E-1
416 446 -1.208344983957311
416 447 2.719766901444929
416 453 -4.139876411800062
416 454 8.396870520413094E-1
417 395 -2.316347972301285
417 398 -1.85807257326341
417 399 8.949036172017426E-1
417 400 -6.278224683790107
417 401 1.4352716557770289
417 402 7.976327804699381E-1
417 406 -5.641546223967899E-1
417 407 -1.1678484833684815
417 408 2.233253420526155
417 412 3.8920074926383663E-1
417 413 -8.858920466356572E-1
417 414 -4.929119845520263
417 415 1.613656540835635
417 416 -7.962823463511385E-1
417 417 2.4297706493510177E1
417 421 -3.17005174112017
417 434 9.60991556905964E-1
417 435 -1.806729379561295
417 436 -5.617479300917475
417 445 3.3945466517902E-1
417 446 2.719766901444929
417 447 -1.0978825282965972
417 453 2.444489567999627E-1
417 454 -5.438201814391722
418 375 -6.681202904387903E-2
418 376 -3.6266686321150807
418 392 -9.00212531920823E-1
418 418 5.7478655069464475
418 419 -1.1487245675252804
418 420 -2.013403646001873
418 422 9.004133661821886E-1
418 423 -1.2349352572595458E-2
418 424 -3.3311841926354946E-1
418 431 -1.0766232812747503
418 432 -1.8059101399544383E-1
418 433 2.7765551852686254E-2
418 434 1.734047232676647E-2
418 435 -7.136291876075175E-1
418 436 4.570840487164485E-1
418 437 -1.7464848933349886E-1
418 438 -7.085482473900027E-1
418 439 -2.9941630769069816E-1
418 440 2.018715570847201
418 445 -9.953028711008697E-1
418 446 1.0374228382506607
418 447 8.051036642167727E-1
418 451 1.4919360804743735
418 452 -2.5359852297768304E-1
419 375 -2.8815155999431727E-2
419 376 2.8391702564289506E-1
419 392 1.491936080474373
419 418 -1.1487245675252804
419 419 5.310460859023016
419 420 1.4162126564021347
419 422 -7.484935257308019E-2
419 423 7.129133661802315E-1
419 424 7.085482474152824E-1
419 431 -6.34827697415453E-1
419 432 -2.4393333315394803
419 433 -4.3137616066536866E-1
419 434 -4.052258375215747E-1
419 435 2.1652073756540458E-1
419 436 1.7503873535155517E-1
419 437 3.7068797095714906E-1
419 438 3.3311841927781755E-1
419 439 -1.3424771396481132
419 440 -2.687623365526729E-1
419 445 5.165895049175518E-1
419 446 -1.7969342287708543
419 447 -1.7990630024672019
419 451 -1.0318382337673544
419 452 -1.3371655876154587E-1
420 375 -2.72518556688158E-1
420 376 2.018715570847201
420 392 3.4163957225426606E-1
420 418 -2.013403646001873
420 419 1.4162126564021347
420 420 6.139088419198677
420 422 -2.483147766280216E-1
420 423 2.7251855671092284E-1
420 424 2.212855502033228
420 431 -2.018053044050967E-1
420 432 -4.3137616066536816E-1
420 433 -2.560253665325588
420 434 9.14168097422833E-2
420 435 6.958720686875095E-1
420 436 -1.1924957069118964
420 437 2.483147766462236E-1
420 438 8.376381293850046E-1
420 439 3.264757586886745E-1
420 440 -3.231823198226591
420 445 2.842703308793991E-1
420 446 -1.7990630024672023
420 447 -2.792528592209165
420 451 -7.289546540028945E-1
420 452 5.875191120563297E-1
421 344 -8.437737391135637E-1
421 345 -5.216417610294432E-1
421 346 -2.918186872222974E-1
421 362 1.322963430702654
421 363 -5.776444096427447E-1
421 380 -9.019137559954602E-1
421 395 -7.629621338982826E-1
421 398 2.5406087484444695E-1
421 399 -3.7398227991971233E-1
421 400 9.187504401285901E-1
421 401 -2.2620701884892114E-1
421 402 -3.6715380377943183
421 412 1.0455241172347531
421 413 1.9523775587433454
421 414 -2.2469849549757237
421 415 1.435271655777028
421 416 1.367845661800412E-1
421 417 -3.17005174112017
421 421 1.1019776264155087E1
421 453 1.1550365231174333
421 454 -5.652026911322742
422 392 5.836327837384284E-1
422 418 9.004133661821886E-1
422 419 -7.484935257308019E-2
422 420 -2.483147766280216E-1
422 422 2.1982863569710666E1
422 423 2.480693538801654E-1
422 424 -5.06666740568529
422 425 8.444072403138199E-1
422 426 6.199125316717556E-2
422 427 -5.198239150172573E-1
422 428 -1.7254692096289639
422 429 2.1900437341835075E-1
422 430 5.559159357748675E-1
422 431 -2.048318214030704E1
422 432 -4.3800874683670116E-1
422 433 3.650072890305847
422 448 -2.102665610009094
422 449 1.818617255038004E-1
422 450 9.70948553901917E-1
422 451 -1.980686065597106E-1
422 452 6.578687173479358E-1
423 392 -1.9806860655971054E-1
423 418 -1.2349352572595458E-2
423 419 7.129133661802315E-1
423 420 2.7251855671092284E-1
423 422 2.480693538801654E-1
423 423 2.1595514713787068E1
423 424 -2.149925403880885
423 425 -6.3008746833794E-2
423 426 4.277200870822677E-1
423 427 5.936089151234633E-1
423 428 1.5650437341786605E-1
423 429 -1.7527815621742533
423 430 -1.2465787216871393
423 431 -3.13008746835732E-1
423 432 -2.042855743521646E1
423 433 2.4931574433742734
423 448 1.8186172550380064E-1
423 449 -1.4335935415373482
423 450 -4.17646664678559E-1
423 451 8.78784371878498E-1
423 452 4.5486587503792286E-1
424 392 1.5515333948518897
424 418 -3.3311841926354946E-1
424 419 7.085482474152824E-1
424 420 2.212855502033228
424 422 -5.06666740568529
424 423 -2.149925403880885
424 424 5.095771579964927E1
424 425 -3.718219258464657E-1
424 426 1.1872178306075903E-1
424 427 1.9989180838962268
424 428 -1.1372692135165552E-1
424 429 -1.2465787216871382
424 430 -5.082418767691976
424 431 2.6084062236311016
424 432 2.493157443374273
424 433 -4.967046386352847E1
424 448 1.725395053663968
424 449 -8.53676355382919E-1
424 450 -2.984399623759212
424 451 9.297530071006265E-1
424 452 2.567792869400931
425 269 3.4294370707531047E-1
425 307 7.140445270596677E-1
425 308 9.616887878305823E-2
425 309 -4.858706549686157E-1
425 319 -1.7632279019465833
425 320 7.13564345764095E-1
425 324 -2.8986800113688025
425 325 3.5840496592022186E-1
425 326 1.318722186606622
425 422 8.444072403138199E-1
425 423 -6.3008746833794E-2
425 424 -3.718219258464657E-1
425 425 1.4202613743502912E1
425 426 1.7140382663728376E-1
425 427 -4.695143640745366
425 428 -1.1523597794547515E1
425 429 -5.144155606143922E-1
425 430 3.0963201479893794
425 448 4.2444019698649776E-1
425 449 -3.914970709676881E-1
425 450 4.242295412003508E-1
426 269 -1.8659960352703182
426 307 -9.133112121891604E-2
426 308 6.2487990321695136E-2
426 309 4.538924445432798E-1
426 319 2.179437070743411E-1
426 320 -1.3616773333988694
426 324 3.5840496592022175E-1
426 325 -1.7856583730873634
426 326 -4.432782947207533E-1
426 422 6.199125316717556E-2
426 423 4.277200870822677E-1
426 424 1.1872178306075903E-1
426 425 1.7140382663728376E-1
426 426 1.3677112686960228E1
426 427 -1.2943814898616497
426 428 -3.2691556061241817E-1
426 429 -1.1369445594561483E1
426 430 2.042516000103967
426 448 -3.9149707096768793E-1
426 449 8.53779238554973E-1
426 450 4.842068902732665E-1
427 269 -1.3616773333988688
427 307 -4.0890623294524053E-1
427 308 -6.484177769452848E-2
427 309 1.7105807191785587
427 319 -3.0483273257002064E-2
427 320 -5.503063981534917
427 324 2.2107717947985117
427 325 -9.181654267834582E-1
427 326 -3.4706056996068306
427 422 -5.198239150172573E-1
427 423 5.936089151234633E-1
427 424 1.9989180838962268
427 425 -4.695143640745366
427 426 -1.2943814898616497
427 427 2.9736373571627738E1
427 428 2.129058243204875
427 429 2.0425160001039666
427 430 -2.7166503146361542E1
427 448 1.3145270239614792
427 449 1.0029411125110752
427 450 2.694300452800759
428 250 -6.078641346756023E-1
428 269 -1.0559602992226619E-1
428 274 -4.694324057771109E-1
428 319 -1.3756469252105152
428 320 4.003121428258451E-2
428 324 8.434540569780203E-1
428 325 1.7993192752875768
428 326 -1.5275526521492468
428 374 7.990963582200366E-1
428 383 -1.4074392077279727
428 396 -9.266135618460221E-1
428 397 2.6503884600589327
428 422 -1.7254692096289639
428 423 1.5650437341786605E-1
428 424 -1.1372692135165552E-1
428 425 -1.1523597794547515E1
428 426 -3.2691556061241817E-1
428 427 2.129058243204875
428 428 2.7270120399285066E1
428 429 2.8509947677786345
428 430 -1.5780691280139225
428 431 7.390671900649216E-1
428 432 -6.945208902419959E-1
428 433 -1.6112540683616133E-1
428 442 -3.4565017437351
428 443 -9.190536108054138E-1
428 444 1.2314006282303747
428 448 -8.43737320363192
428 449 -3.0903962773449094
428 450 -2.062540302750179
429 250 -1.8008522073725683
429 269 -5.3260906781552855
429 274 -1.2216457108857965
429 319 -6.619373097393773E-1
429 320 -9.872437425849228E-1
429 324 1.7993192752875777
429 325 1.1065285640886502
429 326 1.8336364336603894
429 374 1.88336336604447
429 383 -8.239491562069311E-1
429 396 7.990963582200372E-1
429 397 -3.9635136036163154E-1
429 422 2.1900437341835075E-1
429 423 -1.7527815621742533
429 424 -1.2465787216871382
429 425 -5.144155606143922E-1
429 426 -1.1369445594561483E1
429 427 2.0425160001039666
429 428 2.8509947677786345
429 429 3.1225977887011155E1
429 430 -1.1709680673343077
429 431 -1.5250413981020217E-1
429 432 -1.1594905883722337
429 433 3.2128036571025254E-1
429 442 -4.252123309887878E-1
429 443 -5.9981795051417786
429 444 2.8495292222780275
429 448 -3.09039627734491
429 449 -7.388236177853443
429 450 -1.4449679224120677
430 250 -4.117999170276829
430 269 -9.872437425849233E-1
430 274 -1.8008522073725695
430 319 1.2803750732932595E-1
430 320 -3.150543831010671E-1
430 324 -1.5275526521492462
430 325 1.8336364336603892
430 326 3.4808296149784
430 374 -3.963513603616304E-1
430 383 -1.3836946064866538
430 396 2.650388460058934
430 397 -3.186277741753525E-1
430 422 5.559159357748675E-1
430 423 -1.2465787216871393
430 424 -5.082418767691976
430 425 3.0963201479893794
430 426 2.042516000103967
430 427 -2.7166503146361542E1
430 428 -1.5780691280139225
430 429 -1.1709680673343077
430 430 4.4075917483099175E1
430 431 -3.5255683980961305E-1
430 432 3.2128036571025376E-1
430 433 2.047931689357677
430 442 4.7375147805710804E-1
430 443 2.849529222278029
430 444 -5.722209851325061
430 448 -2.06254030275018
430 449 -1.4449679224120684
430 450 -6.881865694503427
431 392 -8.830073081117554
431 418 -1.0766232812747503
431 419 -6.34827697415453E-1
431 420 -2.018053044050967E-1
431 422 -2.048318214030704E1
431 423 -3.13008746835732E-1
431 424 2.6084062236311016
431 428 7.390671900649216E-1
431 429 -1.5250413981020217E-1
431 430 -3.5255683980961305E-1
431 431 3.317072257480892E1
431 432 1.5899713600982999
431 433 -5.70488115571713
431 442 -2.629491181527132
431 443 8.76192447834059E-1
431 444 2.0281938173971823
431 445 -1.6298227801111662
431 446 -1.2223169024528158
431 447 1.5430857160419182
431 448 7.394026994638003E-1
431 449 1.6103226243084485
431 450 -8.927363612866663E-1
431 451 -1.7538289457266043
431 452 9.722939041483039E-1
432 392 -1.753828945726603
432 418 -1.8059101399544383E-1
432 419 -2.4393333315394803
432 420 -4.3137616066536816E-1
432 422 -4.3800874683670116E-1
432 423 -2.042855743521646E1
432 424 2.493157443374273
432 428 -6.945208902419959E-1
432 429 -1.1594905883722337
432 430 3.2128036571025376E-1
432 431 1.5899713600982999
432 432 3.10161672852017E1
432 433 -2.9139137165875617
432 442 5.469557644150187E-1
432 443 -1.5314330646917707
432 444 -1.0948325524559226
432 445 -6.803001520210223E-1
432 446 -2.121166769953588
432 447 1.6189294497009619
432 448 1.6103226243084479
432 449 1.4169669069677089
432 450 -7.580157070062096E-2
432 451 -4.753153002395878
432 452 8.255674162398612E-2
433 392 9.722939041483033E-1
433 418 2.7765551852686254E-2
433 419 -4.3137616066536866E-1
433 420 -2.560253665325588
433 422 3.650072890305847
433 423 2.4931574433742734
433 424 -4.967046386352847E1
433 428 -1.6112540683616133E-1
433 429 3.2128036571025254E-1
433 430 2.047931689357677
433 431 -5.70488115571713
433 432 -2.9139137165875617
433 433 6.191235856225559E1
433 442 1.352194389696601
433 443 -1.0948325524559221
433 444 -4.573803685230583
433 445 7.564161878365183E-1
433 446 1.6189294497009623
433 447 -3.624620645705677
433 448 -8.927363612866649E-1
433 449 -7.580157070062192E-2
433 450 3.6046907205886143
433 451 8.255674162398743E-2
433 452 -7.1358391124115705
434 376 -4.669222969855756E-1
434 395 -1.4622276307802835
434 398 7.309649527858615E-1
434 399 -5.159647564384046E-1
434 400 2.1660659241157187E-1
434 406 1.9742151526546274
434 407 5.748130563189752E-1
434 408 9.409977452496887E-1
434 415 -8.36402633853006
434 416 8.571826585512043E-1
434 417 9.60991556905964E-1
434 418 1.734047232676647E-2
434 419 -4.052258375215747E-1
434 420 9.14168097422833E-2
434 434 1.5814897919287269E1
434 435 -5.036907091629502
434 436 -1.7406050577909407E-1
434 439 2.5048962817457354E-1
434 440 -1.128093585056332
434 445 -8.244242230758607
434 446 3.3774198283498515
434 447 -1.3402977901096698
434 453 8.981925141948769E-1
434 454 4.324391766355879E-1
435 376 8.992460057258003E-1
435 395 1.6437149419153474
435 398 -3.2398718415876504E-1
435 399 1.3681071963738406E-1
435 400 1.7944090136291108E-1
435 406 -1.376169269276819E-1
435 407 2.358337300681551E-1
435 408 -8.666027131769808E-1
435 415 1.3750929476666445
435 416 -5.1147834265138945
435 417 -1.806729379561295
435 418 -7.136291876075175E-1
435 419 2.1652073756540458E-1
435 420 6.958720686875095E-1
435 434 -5.036907091629502
435 435 1.820386267273366E1
435 436 -5.51373794422229E-1
435 439 6.126985505948641E-1
435 440 1.210818090147944
435 445 2.2940864950156747
435 446 -1.3916643640946308E1
435 447 1.2343342024331325
435 453 -3.7429934313926433E-1
435 454 -9.575937547099203E-2
436 376 -1.1280935850563323
436 395 4.3243917663558834E-1
436 398 -3.0422674091648155E-1
436 399 4.934624787457231E-1
436 400 -8.335159544675625E-1
436 406 5.753305062755227E-1
436 407 -8.666027131769805E-1
436 408 9.062597756687655E-1
436 415 9.609915569059639E-1
436 416 -1.1458811652713983
436 417 -5.617479300917475
436 418 4.570840487164485E-1
436 419 1.7503873535155517E-1
436 420 -1.1924957069118964
436 434 -1.7406050577909407E-1
436 435 -5.51373794422229E-1
436 436 1.3189616886394317E1
436 439 5.499698758580478E-1
436 440 -3.621458708328732E-1
436 445 -8.194644567816157E-1
436 446 1.234334202433132
436 447 -6.723114003899697
436 453 1.1105238048214977E-1
436 454 6.328741749664206E-1
437 350 1.817539442342183E-1
437 351 3.179280775214939E-1
437 352 5.513780704959044E-1
437 356 4.9245636121916014E-1
437 357 -1.444436385140187E-1
437 358 -6.221796623255351E-1
437 368 -2.8226270118846473
437 375 5.511553471181726E-1
437 376 -9.8491272243832E-1
437 388 4.1327053181055234E-1
437 389 -9.652988119273055E-1
437 392 -4.7907497261028437E-1
437 418 -1.7464848933349886E-1
437 419 3.7068797095714906E-1
437 420 2.483147766462236E-1
437 437 1.3121969906665129E1
437 438 4.929326411089779
437 439 -1.0133949863261911E1
437 440 -3.5175454372797126
437 451 -7.095654414831964E-1
437 452 -6.239953466993537E-1
438 350 -1.2636450947349281E-1
438 351 3.781327569580135E-1
438 352 6.423051799204813E-1
438 356 1.3268273494831555
438 357 4.746319482120637E-2
438 358 -1.9400309802554054
438 368 -1.7197453117056418
438 375 2.295205933371261
438 376 -2.65365469896631
438 388 8.382032069972517E-1
438 389 -2.0126739195217995
438 392 -9.716690340218624E-1
438 418 -7.085482473900027E-1
438 419 3.3311841927781755E-1
438 420 8.376381293850046E-1
438 437 4.929326411089779
438 438 2.390929757236966E1
438 439 -2.475878770607804
438 440 -2.2177030890214063E1
438 451 -1.4924166998333706
438 452 7.404949083161146E-1
439 356 2.999084311614486E-2
439 357 3.840395919490404E-1
439 358 4.4004262713015385E-1
439 368 -3.374812432903427E-1
439 375 -6.932460557701854E-1
439 376 2.9752735849943313E-3
439 388 1.915095402185816
439 389 5.331667694207054E-1
439 392 -2.6893062668381673E-1
439 395 1.389579568450222
439 418 -2.9941630769069816E-1
439 419 -1.3424771396481132
439 420 3.264757586886745E-1
439 434 2.5048962817457354E-1
439 435 6.126985505948641E-1
439 436 5.499698758580478E-1
439 437 -1.0133949863261911E1
439 438 -2.475878770607804
439 439 2.9371046584595174E1
439 440 5.508280733032401
439 445 -2.326537725367051
439 446 -6.1464876132064E-1
439 447 -1.6319763447911138
439 451 -1.1043726106953818E1
439 452 7.505609409305009E-1
439 453 -6.895501612664257
439 454 -4.000641589661565
440 356 6.51841096419317E-2
440 357 3.744325080816046E-1
440 358 6.864104064901113E-1
440 368 5.33166769420706E-1
440 375 -2.6536546989663097
440 376 3.504976892468888E-1
440 388 8.560962386067048E-2
440 389 1.4655704944151262
440 392 6.085633236563367E-1
440 395 1.4971796092301588
440 418 2.018715570847201
440 419 -2.687623365526729E-1
440 420 -3.231823198226591
440 434 -1.128093585056332
440 435 1.210818090147944
440 436 -3.621458708328732E-1
440 437 -3.5175454372797126
440 438 -2.2177030890214063E1
440 439 5.508280733032401
440 440 3.931527113280324E1
440 445 -8.440016424605463E-1
440 446 -1.6319763447911133
440 447 7.359882475825186E-1
440 451 7.505609409305015E-1
440 452 -7.096314868844707
440 453 -2.9589749229896576
440 454 -9.335925453172768
441 231 -3.914970709606647E-1
441 232 8.537792387311751E-1
441 233 -1.0029411125067356
441 236 -2.867024491308043
441 237 -5.908229975216937
441 238 1.4192736043565537
441 241 -5.33840363909865E-1
441 242 -2.030430175509119
441 243 -4.3438383994205195E-14
441 246 -2.825155194640503E-1
441 247 1.722049038750928E-2
441 248 3.852718237234291
441 249 2.581301370462948
441 270 -5.306533528820038
441 361 -2.8719542232876427E-1
441 362 -1.715196226603458
441 363 -2.3466180520941285E-1
441 374 -6.958361516919084
441 378 1.3274985873743514
441 379 1.3664045758519594E-1
441 380 -1.9984317268477914
441 396 -7.986039226439459E-1
441 397 5.268574209816351E-1
441 403 1.8186172550053853E-1
441 404 -1.433593541675048
441 405 8.53676355380613E-1
441 406 1.6736190809282603
441 407 3.345338923546975E-1
441 408 7.747838042917905E-2
441 409 2.4593855991194044E-1
441 410 9.499689732840175E-1
441 411 1.4718148013101457E-14
441 412 -1.7794188404815983
441 413 -1.2747024479028934E1
441 414 -3.493814661910183
441 441 3.1053398378380596E1
441 442 1.369695744666574
441 443 3.194884383350896
441 444 -8.81030499957276E-1
442 236 -3.5320220157178133
442 237 -6.958400414771378E-1
442 238 -6.417238290245846E-1
442 248 2.7725009770270463
442 249 1.8832183030008807
442 250 5.048039875823794E-2
442 274 -3.3417069903392005E-1
442 374 3.6364051864885454
442 383 -1.0956864313830847
442 392 -1.781832884034264
442 395 2.148296138324582
442 396 -1.2565981693092194E1
442 397 1.1031415017254739E-1
442 406 -3.281644936430807
442 407 9.836181570967499E-1
442 408 -1.4523802936193166
442 412 -2.8159841520101057
442 413 -1.0529242246482622
442 414 1.416456379858364
442 428 -3.4565017437351
442 429 -4.252123309887878E-1
442 430 4.7375147805710804E-1
442 431 -2.629491181527132
442 432 5.469557644150187E-1
442 433 1.352194389696601
442 441 1.369695744666574
442 442 3.6758182087707205E1
442 443 -4.672139842229546
442 444 9.650517711474809E-1
442 445 -1.2423624518321404E1
442 446 4.908316012981714
442 447 -3.327344148537362E-1
442 448 1.9037903531930704
442 449 1.350728445844013
442 450 -2.0237840829967304
442 451 -1.9887567668736115
442 452 -2.515237965415559
442 453 -3.6266754062413487
442 454 7.143937152187069E-1
443 236 -1.222832094994205
443 237 -5.9150121778916835
443 238 -2.7837236181989886
443 248 1.3696957446665725
443 249 -8.810304999572742E-1
443 250 -3.281771555506874E-2
443 274 -4.981737961567186
443 374 -7.878566149607814
443 383 -1.2091706990346416
443 392 -1.9887567668736104
443 395 -3.6266754062413495
443 396 3.6364051864885463
443 397 1.3403895606396731E-3
443 406 1.5293814736784292
443 407 -2.3288814745140276
443 408 1.243463735432172
443 412 -1.0529242246482604
443 413 -2.6722345124430644
443 414 2.1400857217442395
443 428 -9.190536108054138E-1
443 429 -5.9981795051417786
443 430 2.849529222278029
443 431 8.76192447834059E-1
443 432 -1.5314330646917707
443 433 -1.0948325524559221
443 441 3.194884383350896
443 442 -4.672139842229546
443 443 4.159880356973072E1
443 444 -3.6046332193497854E-1
443 445 5.929149346315406
443 446 -1.725856792134401E1
443 447 7.10467750183979E-2
443 448 1.3507284458440125
443 449 2.6431820619470825
443 450 9.069631978185141E-1
443 451 -9.274185138645541E-1
443 452 -1.8446225460906873
443 453 2.0551612660371887
443 454 -2.149387876590721E-1
444 236 -1.3993729792071705
444 237 -2.7837236181989873
444 238 -5.496916449042687
444 248 1.8832183030008784
444 249 -5.267306568136192E-1
444 250 -2.87727127827332E-1
444 274 -3.2817715555067684E-2
444 374 1.3403895606397993E-3
444 383 5.048039873959979E-2
444 392 -2.515237965415561
444 395 7.143937152187068E-1
444 396 1.1031415017254775E-1
444 397 -3.5626263418090596
444 406 -2.1283797213012594
444 407 1.2434637354321716
444 408 -4.507681876601644
444 412 1.4164563798583658
444 413 2.1400857217442395
444 414 -3.827932396132068
444 428 1.2314006282303747
444 429 2.8495292222780275
444 430 -5.722209851325061
444 431 2.0281938173971823
444 432 -1.0948325524559226
444 433 -4.573803685230583
444 441 -8.81030499957276E-1
444 442 9.650517711474809E-1
444 443 -3.6046332193497854E-1
444 444 3.616901357075236E1
444 445 -3.327344148444156E-1
444 446 7.10467750183979E-2
444 447 -8.918730582361052
444 448 -2.02378408299673
444 449 9.069631978185148E-1
444 450 -1.1078705988580158
444 451 -1.8446225460906875
444 452 -2.4877486459538147
444 453 -2.1493878765907165E-1
444 454 4.850964641202572
445 376 6.824226351166501E-1
445 392 -3.7008229876141456
445 395 -9.663189524735275
445 406 -2.902828832209654
445 407 -2.6029744080902056E-1
445 408 -1.669043260664047
445 412 3.4392593583234374
445 413 -3.7300978518224875E-1
445 414 2.9809628297311517
445 415 1.9429651734638709
445 416 -3.9409407564905474E-1
445 417 3.3945466517902E-1
445 418 -9.953028711008697E-1
445 419 5.165895049175518E-1
445 420 2.842703308793991E-1
445 431 -1.6298227801111662
445 432 -6.803001520210223E-1
445 433 7.564161878365183E-1
445 434 -8.244242230758607
445 435 2.2940864950156747
445 436 -8.194644567816157E-1
445 439 -2.326537725367051
445 440 -8.440016424605463E-1
445 442 -1.2423624518321404E1
445 443 5.929149346315406
445 444 -3.327344148444156E-1
445 445 3.349518657794716E1
445 446 -7.793131979684178
445 447 1.687619084625741
445 451 2.4120047800629933
445 452 -2.705817313254556
445 453 6.7554103240095E-1
445 454 3.2233798975334993E-1
446 376 -2.326537725367052
446 392 2.412004780062994
446 395 6.755410324009519E-1
446 406 -3.016140237108202E-1
446 407 -1.5349640619614464
446 408 5.084071781177116E-2
446 412 -3.730097851822487E-1
446 413 3.860478871143732
446 414 -1.9358361025369573
446 415 -3.940940756490559E-1
446 416 -1.208344983957311
446 417 2.719766901444929
446 418 1.0374228382506607
446 419 -1.7969342287708543
446 420 -1.7990630024672023
446 431 -1.2223169024528158
446 432 -2.121166769953588
446 433 1.6189294497009623
446 434 3.3774198283498515
446 435 -1.3916643640946308E1
446 436 1.234334202433132
446 439 -6.1464876132064E-1
446 440 -1.6319763447911133
446 442 4.908316012981714
446 443 -1.725856792134401E1
446 444 7.10467750183979E-2
446 445 -7.793131979684178
446 446 4.0106300185972E1
446 447 -2.1485497782684084
446 451 -1.9902754070445767
446 452 1.6149679758881428
446 453 -3.5252332818170062
446 454 2.0553920576634652E-1
447 376 -8.440016424605463E-1
447 392 -2.7058173132545544
447 395 3.223379897533496E-1
447 406 -2.4557127888694477
447 407 5.084071781177088E-2
447 408 -4.226654237689436
447 412 2.980962829731152
447 413 -1.9358361025369568
447 414 2.7480499674650103
447 415 3.3945466517902056E-1
447 416 2.719766901444929
447 417 -1.0978825282965972
447 418 8.051036642167727E-1
447 419 -1.7990630024672019
447 420 -2.792528592209165
447 431 1.5430857160419182
447 432 1.6189294497009619
447 433 -3.624620645705677
447 434 -1.3402977901096698
447 435 1.2343342024331325
447 436 -6.723114003899697
447 439 -1.6319763447911138
447 440 7.359882475825186E-1
447 442 -3.327344148537362E-1
447 443 7.10467750183979E-2
447 444 -8.918730582361052
447 445 1.687619084625741
447 446 -2.1485497782684084
447 447 2.9930356275933185E1
447 451 1.614967975888142
447 452 -2.379385836698987
447 453 2.0553920576634693E-1
447 454 -3.6514780641200995
448 324 -7.887622579502963E-1
448 325 -2.5202381213862346E-1
448 326 8.452648391753495E-2
448 367 1.3274985873743514
448 368 -1.9984317268477911
448 374 -7.653652667676134E-1
448 386 -3.2519101801437458
448 387 -4.929665359399623E-1
448 388 -2.2811322879002294
448 389 1.2850484566197382
448 392 -6.466258222393836
448 396 -5.550934486905675
448 397 2.4180658845738825
448 422 -2.102665610009094
448 423 1.8186172550380064E-1
448 424 1.725395053663968
448 425 4.2444019698649776E-1
448 426 -3.9149707096768793E-1
448 427 1.3145270239614792
448 428 -8.43737320363192
448 429 -3.09039627734491
448 430 -2.06254030275018
448 431 7.394026994638003E-1
448 432 1.6103226243084479
448 433 -8.927363612866649E-1
448 442 1.9037903531930704
448 443 1.3507284458440125
448 444 -2.02378408299673
448 448 2.5811402999291428E1
448 449 3.3899425284382083
448 450 -1.8567591646175003
448 451 -1.3626397574021962
448 452 5.01223544854434E-1
449 324 -2.5202381213862396E-1
449 325 -5.040593430773386
449 326 -1.3676762191592307E-2
449 367 -2.871954223287638E-1
449 368 -1.7151962266034575
449 374 -6.53536748542175
449 386 1.3274985873743521
449 387 -1.3664045758519563E-1
449 388 -1.9984317268477916
449 389 2.3466180520941343E-1
449 392 -1.3626397574021964
449 396 -7.653652667676141E-1
449 397 -5.249668401790006E-1
449 422 1.818617255038004E-1
449 423 -1.4335935415373482
449 424 -8.53676355382919E-1
449 425 -3.914970709676881E-1
449 426 8.53779238554973E-1
449 427 1.0029411125110752
449 428 -3.0903962773449094
449 429 -7.388236177853443
449 430 -1.4449679224120684
449 431 1.6103226243084485
449 432 1.4169669069677089
449 433 -7.580157070062192E-2
449 442 1.350728445844013
449 443 2.6431820619470825
449 444 9.069631978185148E-1
449 448 3.3899425284382083
449 449 2.9428474246834725E1
449 450 -2.5786652213191013
449 451 -1.1942220169786339E1
449 452 3.4838290142314956
450 324 1.2575220164703038E-1
450 325 -1.0398142884916277
450 326 -1.2101957739632474
450 367 -4.863275884814051E-1
450 368 8.247696408050891E-1
450 374 -5.249668401790006E-1
450 386 4.871110041545504E-1
450 387 1.3689696799982815E-1
450 388 1.998269238652294
450 389 -8.677280619787548E-1
450 392 4.1144348752105064E-1
450 396 2.4180658845738816
450 397 -1.165906308384282E1
450 422 9.70948553901917E-1
450 423 -4.17646664678559E-1
450 424 -2.984399623759212
450 425 4.242295412003508E-1
450 426 4.842068902732665E-1
450 427 2.694300452800759
450 428 -2.062540302750179
450 429 -1.4449679224120677
450 430 -6.881865694503427
450 431 -8.927363612866663E-1
450 432 -7.580157070062096E-2
450 433 3.6046907205886143
450 442 -2.0237840829967304
450 443 9.069631978185141E-1
450 444 -1.1078705988580158
450 448 -1.8567591646175003
450 449 -2.5786652213191013
450 450 2.74529728945715E1
450 451 4.352250367365513
450 452 -9.177738199055224
451 368 -5.339736255912786
451 374 1.2641526048902108
451 375 -4.790749726102841E-1
451 376 -2.6893062668381545E-1
451 388 8.070948922313398E-2
451 389 1.3310340329691306E-1
451 392 1.6795363637199796
451 395 -1.4469535700473717
451 396 1.8340665324231136
451 397 -2.6962211836106977
451 418 1.4919360804743735
451 419 -1.0318382337673544
451 420 -7.289546540028945E-1
451 422 -1.980686065597106E-1
451 423 8.78784371878498E-1
451 424 9.297530071006265E-1
451 431 -1.7538289457266043
451 432 -4.753153002395878
451 433 8.255674162398743E-2
451 437 -7.095654414831964E-1
451 438 -1.4924166998333706
451 439 -1.1043726106953818E1
451 440 7.505609409305015E-1
451 442 -1.9887567668736115
451 443 -9.274185138645541E-1
451 444 -1.8446225460906875
451 445 2.4120047800629933
451 446 -1.9902754070445767
451 447 1.614967975888142
451 448 -1.3626397574021962
451 449 -1.1942220169786339E1
451 450 4.352250367365513
451 451 3.5074363052414725E1
451 452 -3.7590132053852736
451 453 5.206331020250612E-1
451 454 2.6580358527172394
452 368 1.2752440118269107E-2
452 374 -2.696221183610697
452 375 -4.6621099612329814E-1
452 376 6.085633236563366E-1
452 388 -7.67922682705882E-1
452 389 -5.740161889470661
452 392 3.232731399100708E-2
452 395 2.240304024162062
452 396 1.696206652316899
452 397 1.633193598560946
452 418 -2.5359852297768304E-1
452 419 -1.3371655876154587E-1
452 420 5.875191120563297E-1
452 422 6.578687173479358E-1
452 423 4.5486587503792286E-1
452 424 2.567792869400931
452 431 9.722939041483039E-1
452 432 8.255674162398612E-2
452 433 -7.1358391124115705
452 437 -6.239953466993537E-1
452 438 7.404949083161146E-1
452 439 7.505609409305009E-1
452 440 -7.096314868844707
452 442 -2.515237965415559
452 443 -1.8446225460906873
452 444 -2.4877486459538147
452 445 -2.705817313254556
452 446 1.6149679758881428
452 447 -2.379385836698987
452 448 5.01223544854434E-1
452 449 3.4838290142314956
452 450 -9.177738199055224
452 451 -3.7590132053852736
452 452 3.255832163597703E1
452 453 2.658035852717239
452 454 -4.070133571876384
453 344 -5.683972377112422E-1
453 345 1.5272811310390846
453 346 -3.5369157643699434E-1
453 356 -1.3363688056874317
453 357 -1.7336383956978703
453 358 -7.115789653379805E-1
453 362 -8.235266051140464
453 363 -2.339895014499689
453 368 -4.7458672950664225
453 371 2.331700286506987
453 372 -3.207351213644941
453 373 6.549358583566198E-1
453 374 -1.0056432111391964
453 376 1.0979129017847629
453 380 3.4460177120171265
453 388 3.051236006199616
453 389 2.127856643324272
453 392 -1.4469535700473724
453 395 -4.491884238597234
453 396 6.745977141355858E-1
453 397 1.0348852990962293E-1
453 401 8.044755766363071E-2
453 402 -2.3699321986613855
453 412 -1.9290481408835374
453 413 -2.8364875662023143
453 414 -2.4761448110962134
453 415 1.1436816742646325
453 416 -4.139876411800062
453 417 2.444489567999627E-1
453 421 1.1550365231174333
453 434 8.981925141948769E-1
453 435 -3.7429934313926433E-1
453 436 1.1105238048214977E-1
453 439 -6.895501612664257
453 440 -2.9589749229896576
453 442 -3.6266754062413487
453 443 2.0551612660371887
453 444 -2.1493878765907165E-1
453 445 6.7554103240095E-1
453 446 -3.5252332818170062
453 447 2.0553920576634693E-1
453 451 5.206331020250612E-1
453 452 2.658035852717239
453 453 3.4966021081871844E1
453 454 1.7948301275459595
454 344 1.5108580221408543
454 345 2.5526675689986E-1
454 346 3.506058974113405E-1
454 356 -1.718218698444943
454 357 -1.3949420605802274
454 358 -2.4515167899999684
454 362 -2.3398950144996897
454 363 -7.026460844359227
454 368 2.1278566433242716
454 371 -3.5830382418915135E-1
454 372 5.061263345458327E-1
454 373 -2.916675422379039
454 374 1.034885299096231E-1
454 376 1.4971796092301588
454 380 3.4129556864871553
454 388 -3.4470023042463236
454 389 -5.638888667566417
454 392 2.240304024162062
454 395 2.346659074428518
454 396 6.724225591655256E-2
454 397 4.706508967940332
454 401 -7.62962133898283E-1
454 402 2.031491136217318
454 412 -3.9415346208929596
454 413 -2.476144811096213
454 414 -7.371489114603116
454 415 -2.316347972301285
454 416 8.396870520413094E-1
454 417 -5.438201814391722
454 421 -5.652026911322742
454 434 4.324391766355879E-1
454 435 -9.575937547099203E-2
454 436 6.328741749664206E-1
454 439 -4.000641589661565
454 440 -9.335925453172768
454 442 7.143937152187069E-1
454 443 -2.149387876590721E-1
454 444 4.850964641202572
454 445 3.2233798975334993E-1
454 446 2.0553920576634652E-1
454 447 -3.6514780641200995
454 451 2.6580358527172394
454 452 -4.070133571876384
454 453 1.7948301275459595
454 454 4.301184297227081E1
455 455 5.280399870826429
455 456 1.0806361607073731
455 457 1.9501355229916166
455 458 5.601781728335603E-1
455 459 3.735351562498687E-1
455 460 -1.6566685268169082E-1
455 464 2.3437499996857708E-2
455 465 -8.105445023901018E-1
455 466 -9.385463169627544E-1
455 467 -3.149746226684923E-1
455 468 -1.526537698596938E-1
455 469 2.578125000091998E-1
455 470 1.692708333387444E-1
455 482 -3.463925500809797
455 483 -1.4843749999732428E-1
455 484 -1.6685267857402122
455 485 -1.963925500782731
455 486 -6.484375000032209E-1
455 487 -3.5900297620045957E-1
455 517 5.504712301823345E-1
455 518 3.887648809604932E-1
456 455 1.0806361607073731
456 456 5.280399870776811
456 457 1.9501355229516653
456 458 3.735351562500633E-1
456 459 5.601781728191426E-1
456 460 -1.656668526788274E-1
456 464 -1.5265376981682977E-1
456 465 -9.385463169627541E-1
456 466 -8.105445023561623E-1
456 467 -3.14974622658421E-1
456 468 2.343750000928352E-2
456 469 5.504712301400546E-1
456 470 3.887648809462616E-1
456 482 -6.484374999973241E-1
456 483 -1.9639255007950411
456 484 -3.59002976171142E-1
456 485 -1.4843750000322098E-1
456 486 -3.4639255007679743
456 487 -1.6685267857247892
456 517 2.578124999965791E-1
456 518 1.692708333352529E-1
457 455 1.9501355229916166
457 456 1.9501355229516653
457 457 7.614922668079913
457 458 1.1335100446618232E-1
457 459 1.133510044636746E-1
457 460 -2.804627710589684E-1
457 464 -2.473958333363201E-1
457 465 -9.102127179173634E-1
457 466 -9.102127178922879E-1
457 467 3.890614560868826E-1
457 468 -2.473958333328287E-1
457 469 5.264136904753322E-1
457 470 1.130084325392036
457 482 -1.6685267857402117
457 483 2.362351190627251E-1
457 484 -4.991845001957042
457 485 2.3623511904841105E-1
457 486 -1.6685267857247887
457 487 -4.9918450019849345
457 517 5.264136904841931E-1
457 518 1.130084325442114
458 455 5.601781728335603E-1
458 456 3.735351562500633E-1
458 457 1.1335100446618232E-1
458 458 1.756190449791502E1
458 459 2.1032519934553964
458 460 4.930011580133967E-1
458 461 -8.866897934984447
458 462 -2.926331713619011E-1
458 463 -1.4594780219928478
458 471 3.3940972211075554E-1
458 472 -2.812500000016259E-1
458 473 -1.4713541667074517
458 474 -3.767271426695138
458 475 -8.891601562428562E-1
458 476 1.1701311384170148
458 477 -6.458333333365741E-1
458 478 -5.983072916634833E-1
458 482 -1.141834077428129
458 483 2.597656249998219E-1
458 484 7.324218750118564E-1
458 485 -1.5772569444478384
458 486 -7.109374999973336E-1
458 487 8.463541666804717E-1
458 494 -7.946428571418069E-1
458 495 -1.0416666666852439
458 496 5.882626488206537E-1
458 527 1.1579241074323367E-1
458 648 -1.458333333317478E-1
458 649 1.0416666666709357E-1
458 650 6.250000000014229E-1
458 655 -3.228878340093763
458 656 1.3699441100697368E-1
458 657 2.2417065372216882E-1
458 675 -1.8967070774712638
458 676 -3.7784475602335194E-2
458 677 2.3989709889586985E-2
458 681 2.842037187991568
458 682 4.781920758267604E-1
458 683 -8.44183499637212E-1
459 455 3.735351562498687E-1
459 456 5.601781728191426E-1
459 457 1.133510044636746E-1
459 458 2.1032519934553964
459 459 1.8294815263778148E1
459 460 4.558768981231057E-1
459 461 -2.9263317136041267E-1
459 462 -9.083014175714123
459 463 -1.262706043968143
459 471 -3.437500000019643E-1
459 472 1.6326388887792904
459 473 -1.82291666664129
459 474 -1.1547851562429403
459 475 -3.0537297599840265
459 476 1.3747442335912103
459 477 -1.330357142842883
459 478 -9.310825892411926E-1
459 482 -1.777343749998414E-1
459 483 1.7066592256921737E-1
459 484 2.115885416610101E-1
459 485 -2.7343749999844824E-1
459 486 -2.8897569444228095
459 487 1.3671875000036466
459 494 -4.1666666666879226E-1
459 495 -1.56250000000842
459 496 8.300781250063822E-1
459 527 -2.493489583313588E-1
459 648 2.0833333333760258E-2
459 649 -4.9583333332969726E-1
459 650 -1.0416666666595438
459 655 1.3699441100697474E-1
459 656 -3.7125139584563027
459 657 -9.45080797363693E-1
459 675 -2.0445114226900135E-1
459 676 -2.8293347535878977
459 677 2.529613699781326E-1
459 681 4.781920758267596E-1
459 682 3.667324409633137
459 683 2.029082501813927
460 455 -1.6566685268169082E-1
460 456 -1.656668526788274E-1
460 457 -2.804627710589684E-1
460 458 4.930011580133967E-1
460 459 4.558768981231057E-1
460 460 2.951322824850624E1
460 461 -5.219780219835481E-1
460 462 -1.2627060439681417
460 463 -2.079211823651886E1
460 471 -1.5755208333734085
460 472 -1.8229166666349186
460 473 2.6560763886800083
460 474 1.170131138417015
460 475 1.058523995499847
460 476 -3.739874530258085
460 477 -1.5625000000084215
460 478 8.300781250063829E-1
460 482 7.324218750118557E-1
460 483 -3.0924479167513297E-1
460 484 -1.3985305060143025
460 485 3.255208333378471E-1
460 486 1.3671875000036462
460 487 -3.3689236111570944
460 494 -5.208333333426189E-1
460 495 -6.071428571383903E-1
460 496 8.88113839334188E-1
460 527 3.4644717262589503E-1
460 648 3.1250000000071204E-1
460 649 -5.208333333297691E-1
460 650 -1.8333333333180502E-1
460 655 -1.9249601294450078E-1
460 656 -3.4984270212983326E-1
460 657 -4.260206850108569
460 675 4.4065637655625667E-1
460 676 2.529613699781321E-1
460 677 -3.286102320556721
460 681 -8.441834996372122E-1
460 682 2.0290825018139307
460 683 4.859276539622362
461 458 -8.866897934984447
461 459 -2.9263317136041267E-1
461 460 -5.219780219835481E-1
461 461 1.6721463327467465E1
461 462 2.0811726537031388
461 463 1.1214114011108978
461 471 4.285714285146404E-1
461 472 -2.4999999999553427E-1
461 473 1.8750000000257612
461 477 -6.458333333292657E-1
461 479 -5.983072916689534E-1
461 488 5.601781728323592E-1
461 489 3.7353515625002465E-1
461 490 -1.1335100446522797E-1
461 491 -4.0801566328068206E-1
461 492 -3.633653846144601E-1
461 493 -8.657165750758774E-1
461 494 -1.1755952379818961
461 495 1.0416666666438215
461 499 1.1579241061498795E-1
461 500 -5.882626488067024E-1
461 505 -3.767271426969713
461 506 -8.891601562574797E-1
461 507 -1.1701311384147006
461 508 -1.5772569444110809
461 509 -7.109375000014865E-1
461 510 -8.463541666653316E-1
461 511 -1.1418340773865663
461 512 2.5976562500072997E-1
461 513 -7.324218750063993E-1
461 655 4.068040327901349E-1
461 656 6.470287757541995E-1
461 657 1.0439560439527655
461 672 -9.770107811451029E-2
461 673 -4.2124542123887596E-2
461 674 -1.3736263736481819E-1
461 675 2.6902349243029505E-1
461 676 1.2454212454277994E-1
461 677 -2.1062271061943702E-1
461 681 -1.4672605015209852
461 682 3.063170441006076E-1
461 683 1.0416666666879773E-1
462 458 -2.926331713619011E-1
462 459 -9.083014175714123
462 460 -1.2627060439681417
462 461 2.0811726537031388
462 462 1.7986730771428284E1
462 463 2.904994197533701
462 471 -2.4999999999553546E-1
462 472 1.0714285713707659
462 473 1.5625000000005418
462 477 -2.2827380951008758
462 479 -9.310825893884966E-1
462 488 3.7353515625001354E-1
462 489 5.601781728270756E-1
462 490 -1.1335100446440799E-1
462 491 -4.258653846140176E-1
462 492 7.254119020392303E-1
462 493 5.403808085818275E-1
462 494 -4.1666666666299707E-1
462 495 1.5624999999727291
462 499 -2.4934895833423112E-1
462 500 -8.300781250040974E-1
462 505 -1.1547851562573699
462 506 -3.053729760299977
462 507 -1.3747442336692572
462 508 -2.7343750000108874E-1
462 509 -2.8897569444031985
462 510 -1.3671874999942393
462 511 -1.7773437499971223E-1
462 512 1.706659226141754E-1
462 513 -2.1158854167153773E-1
462 655 6.470287757542015E-1
462 656 6.55399299268225E-1
462 657 -5.995879120967009E-1
462 672 -1.2545787545722106E-1
462 673 -3.7119581586146716E-1
462 674 7.907509157515609E-1
462 675 -4.212454212388686E-2
462 676 -2.2450598764352817E-1
462 677 -1.186126373627335
462 681 3.0631704410060745E-1
462 682 -2.3337912711360866
462 683 -4.1575618734464254E-1
463 458 -1.4594780219928478
463 459 -1.262706043968143
463 460 -2.079211823651886E1
463 461 1.1214114011108978
463 462 2.904994197533701
463 463 2.7974655523565495E1
463 471 1.8750000000257618
463 472 1.5625000000005385
463 473 4.285714284304779E-1
463 477 1.5624999999727298
463 479 -8.300781250040976E-1
463 488 1.6566685267949322E-1
463 489 1.6566685267834066E-1
463 490 -2.8046277105079254E-1
463 491 -5.17731227091624E-1
463 492 4.149229331279576E-1
463 493 2.2626991418751503
463 494 5.208333333138038E-1
463 495 -9.88095237849886E-1
463 499 -3.4644717260879354E-1
463 500 8.881138390384666E-1
463 505 -1.1701311384147004
463 506 -1.0585239955706596
463 507 -3.7398745309207593
463 508 -3.255208333353125E-1
463 509 -1.3671874999942382
463 510 -3.368923611033075
463 511 -7.32421875006398E-1
463 512 3.092447916581111E-1
463 513 -1.3985305059467583
463 655 1.0439560439527664
463 656 -5.995879120966947E-1
463 657 1.8608891731846325E-1
463 672 -6.868131868240754E-2
463 673 3.9537545787578215E-1
463 674 -1.3397054113601625E-1
463 675 -6.272893772861019E-1
463 676 -1.1861263736273346
463 677 1.271928708195814E-2
463 681 5.20833333335463E-1
463 682 -1.0109942825859928
463 683 -1.0508727028538634
464 455 2.3437499996857708E-2
464 456 -1.5265376981682977E-1
464 457 -2.473958333363201E-1
464 464 8.461922671551745
464 465 1.2114930787864524
464 466 -1.1823165556229405
464 467 3.88900394826639E-1
464 478 -1.8458232850728875
464 485 4.374999999456042E-2
464 486 -2.1368055555631944
464 487 1.0937500000127864
464 496 3.784961826560748E-1
464 514 1.798799809885841E-1
464 515 -6.349108895044898E-1
464 516 4.5925413460261183E-1
464 517 -1.4099979160344528E-2
464 518 -5.067860531782544E-1
464 524 -3.2960667036000424E-1
464 525 -2.471173776051473E-3
464 526 -1.1251726297781657
464 527 2.590825031676399E-1
464 538 -1.3739364134137457
464 539 -2.5069414421953513
464 540 -4.41046195805372E-1
465 455 -8.105445023901018E-1
465 456 -9.385463169627541E-1
465 457 -9.102127179173634E-1
465 464 1.2114930787864524
465 465 2.4309334785837844E1
465 466 -2.219974837384405
465 467 -1.3899117519381243
465 468 -1.1839297231404142
465 469 1.2117171336202275
465 470 7.564905349435423E-1
465 474 -1.218888801137737
465 475 1.1662733730858492
465 476 -8.529042313980761E-1
465 478 1.539899569486709
465 481 2.0295451032114986
465 482 -5.393060869760387E-1
465 483 -1.0957031250033713
465 484 -2.580915178544292E-1
465 485 -3.6628224206688635
465 486 -1.4765624999879758
465 487 1.7578125000274663
465 496 3.077634795040577
465 517 -3.589308076864564
465 518 -1.571614535672719
465 519 -6.662975864555665E-1
465 520 -1.7939902460304669
465 527 -2.02807157370365
465 538 -2.605832135897776
465 539 1.362069071540195
465 540 7.509668034866358E-2
465 547 -9.96220304361958E-1
465 555 5.324898504546758E-1
465 581 -3.568505887989546E-1
465 582 -2.271319991041091
465 612 -7.647483289804181
465 613 1.0545303850068783
466 455 -9.385463169627544E-1
466 456 -8.105445023561623E-1
466 457 -9.102127178922879E-1
466 464 -1.1823165556229405
466 465 -2.219974837384405
466 466 2.5830446388297265E1
466 467 4.886981749323098E-1
466 468 1.2117171336202293
466 469 -3.5918660381949232
466 470 -1.5725146255202922
466 474 1.166273373085848
466 475 -3.2224985682814267
466 476 3.411975476893943
466 478 -6.888218718532038E-1
466 481 -3.0285942133252854
466 482 -1.0957031250033709
466 483 -2.414306086921548
466 484 1.3044084821591788
466 485 -1.4765624999879736
466 486 -1.7878224206384385
466 487 1.9531249999224043E-1
466 496 -1.7439622030975108
466 517 1.211493078786451
466 518 7.563037025091319E-1
466 519 -1.7939902460304669
466 520 -6.688159286955301E-1
466 527 1.5398995694867081
466 538 1.3620690715401949
466 539 -8.576324770556456
466 540 -7.937008611354498E-1
466 547 1.4146456814864916E-1
466 555 1.1600333749027574
466 581 -9.962203043619574E-1
466 582 -1.8537442242595041
466 612 2.0295451032114973
466 613 -4.425970794845174E-1
467 455 -3.149746226684923E-1
467 456 -3.14974622658421E-1
467 457 3.890614560868826E-1
467 464 3.88900394826639E-1
467 465 -1.3899117519381243
467 466 4.886981749323098E-1
467 467 2.2124919153031968E1
467 468 3.889566648775925E-1
467 469 -6.83220141543601E-1
467 470 -1.118735143565768
467 474 -8.529042313980761E-1
467 475 3.4119754768939434
467 476 -4.402460084092513
467 478 -1.743962203097511
467 481 -2.0450184137523708E-1
467 482 -2.580915178544297E-1
467 483 1.3044084821591782
467 484 -4.4885115499445816E-1
467 485 1.7578125000274656
467 486 1.9531249999224126E-1
467 487 -1.8562748015979562
467 496 -5.144731862608706
467 517 -6.82789148889617E-1
467 518 -1.1176127936370508
467 519 1.11983337375261E-2
467 520 6.381421986085589E-1
467 527 3.0776347950405762
467 538 3.131919184429402E-1
467 539 -1.6270341944785967
467 540 -2.7482810689056496
467 547 -1.8537442242595046
467 555 1.1533608436327161E-1
467 581 -2.271319991041092
467 582 -3.114705735921623
467 612 2.2119705166373038E-1
467 613 -2.677664048158401
468 455 -1.526537698596938E-1
468 456 2.343750000928352E-2
468 457 -2.473958333328287E-1
468 465 -1.1839297231404142
468 466 1.2117171336202293
468 467 3.889566648775925E-1
468 468 8.462533041465845
468 469 -1.546932421632135E-2
468 470 -5.070412896719693E-1
468 474 -1.8475867832723762
468 475 2.589347375348228E-1
468 476 3.788389089051877E-1
468 481 -1.373702344558814
468 482 -2.1368055556025882
468 483 4.37500000201243E-2
468 484 1.0937500000276636
468 586 -6.353401243119075E-1
468 587 1.807665747275624E-1
468 588 4.594173376065498E-1
468 595 -1.995026213702872E-3
468 596 -3.294342771368871E-1
468 597 -1.1255724770747766
468 612 -2.50422205906516
468 613 -4.409533113374191E-1
469 455 2.578125000091998E-1
469 456 5.504712301400546E-1
469 457 5.264136904753322E-1
469 465 1.2117171336202275
469 466 -3.5918660381949232
469 467 -6.83220141543601E-1
469 468 -1.546932421632135E-2
469 469 1.1290737885878691E1
469 470 4.198918566983949
469 474 3.9955973753423335E-1
469 475 -3.492465023118309
469 476 -2.5483117109263964
469 481 -5.544020584651173
469 482 4.8125000001978707E-1
469 483 -8.243055556089558E-1
469 484 -5.729166666899288E-1
469 586 -1.9423342527176332E-1
469 587 5.147309986099614E-1
469 588 5.252866569290109E-1
469 595 -7.669342771365506E-1
469 596 1.0967170869446567
469 597 -4.387380237400415E-1
469 612 -1.3737023445588128
469 613 -1.0074323714883238
470 455 1.692708333387444E-1
470 456 3.887648809462616E-1
470 457 1.130084325392036
470 465 7.564905349435423E-1
470 466 -1.5725146255202922
470 467 -1.118735143565768
470 468 -5.070412896719693E-1
470 469 4.198918566983949
470 470 1.0905269850310244E1
470 474 3.7883890890518657E-1
470 475 -1.7856629013966174
470 476 -5.709911729177138
470 481 -1.7812418952844848
470 482 1.0937500000276639
470 483 -5.2083333353786565E-2
470 484 -2.5201388889547554
470 586 9.188346754059823E-2
470 587 3.7291447423341983E-1
470 588 3.8745413122586403E-1
470 595 -1.1255724770747766
470 596 2.30904833391551E-1
470 597 -4.9589054107224334E-1
470 612 -8.576199780089897E-1
470 613 -2.5781320041582365
471 458 3.3940972211075554E-1
471 459 -3.437500000019643E-1
471 460 -1.5755208333734085
471 461 4.285714285146404E-1
471 462 -2.4999999999553546E-1
471 463 1.8750000000257618
471 471 6.3984232275771326E1
471 472 2.5750461968500127E-1
471 473 2.9511269147928285
471 474 -3.5907427771920474E1
471 475 8.837429896152811E-1
471 476 -3.911807980959038
471 477 7.278191660704272E-1
471 491 -1.888395729383789E1
471 492 -2.6639206640544803E-2
471 493 5.060773377769081E-1
471 494 7.676885032558634E-1
471 495 7.769834804964379E-2
471 547 -5.829956722231521E-1
471 581 -2.293253454430068
471 582 -6.223771338201761E-2
471 590 -3.9059274083682183E-1
471 591 -9.721710356788625E-2
471 592 9.043278540617737E-1
471 595 -2.5454657904362095
471 596 -3.808063811091946E-1
471 597 1.706814155836872
471 598 -1.0416666666988282E-1
471 602 8.668665504246498E-1
471 603 2.4984158816768506E-1
471 604 -2.5756447494992085
471 655 -5.113095238138182
471 656 -8.75000000000237E-1
471 657 2.083333333397643E-1
471 658 -1.2529761904775967
471 659 4.3750000000012107E-1
472 458 -2.812500000016259E-1
472 459 1.6326388887792904
472 460 -1.8229166666349186
472 461 -2.4999999999553427E-1
472 462 1.0714285713707659
472 463 1.5625000000005385
472 471 2.5750461968500127E-1
472 472 7.431526465651604E1
472 473 -1.4427504868613102E1
472 474 1.0087429896159559
472 475 -3.762700040591444E1
472 476 1.0889967083671017E1
472 477 5.099857476748065E-2
472 491 -2.6639206640545705E-2
472 492 -2.0278231079233997E1
472 493 1.9794875751887415
472 494 7.278191660704265E-1
472 495 -5.466171190384558E-1
472 547 -4.236655128871773
472 581 -5.829956722231515E-1
472 582 4.3784971544933426E-1
472 590 -2.2221710356856036E-1
472 591 1.2397267959216345
472 592 -4.604418738162912E-1
472 595 -4.433063811095318E-1
472 596 -2.7264086775244682
472 597 1.0661762351614197
472 598 6.696428571183207E-1
472 602 2.4984158816768526E-1
472 603 2.1671663757147948
472 604 -3.8980960518542207E-1
472 655 -8.750000000002377E-1
472 656 -1.2170238095317238E1
472 657 1.04166666669882
472 658 4.3750000000012057E-1
472 659 -3.4386904762081008
473 458 -1.4713541667074517
473 459 -1.82291666664129
473 460 2.6560763886800083
473 461 1.8750000000257612
473 462 1.5625000000005418
473 463 4.285714284304779E-1
473 471 2.9511269147928285
473 472 -1.4427504868613102E1
473 473 1.399711291568217E2
473 474 -3.9118079809590403
473 475 9.848300416998734
473 476 -8.612751714750512E1
473 477 -5.466171190384546E-1
473 491 5.060773377769083E-1
473 492 1.9794875751887457
473 493 -4.583268129584836E1
473 494 7.769834804964353E-2
473 495 3.100665289427213
473 547 4.3784971544933626E-1
473 581 -6.223771338201863E-2
473 582 -4.1620079928388
473 590 6.959945207298643E-1
473 591 -4.604418738035593E-1
473 592 2.481870283845358
473 595 1.7068141558368737
473 596 3.9653337802982525E-1
473 597 -7.1044012331541815
473 598 -1.3404761904635927
473 602 -2.5756447494992094
473 603 -3.898096051854219E-1
473 604 8.668665507714814E-1
473 655 4.1666666667167407E-1
473 656 2.083333333358367
473 657 -4.938095238166187
473 658 -2.0833333333583798E-1
473 659 1.3392857142562797
474 458 -3.767271426695138
474 459 -1.1547851562429403
474 460 1.170131138417015
474 465 -1.218888801137737
474 466 1.166273373085848
474 467 -8.529042313980761E-1
474 468 -1.8475867832723762
474 469 3.9955973753423335E-1
474 470 3.7883890890518657E-1
474 471 -3.5907427771920474E1
474 472 1.0087429896159559
474 473 -3.9118079809590403
474 474 5.3647613553023405E1
474 475 -3.598836602646164E-1
474 476 4.531061255440338
474 477 1.2067010897176803E-1
474 478 1.8115422314110403
474 481 -1.6137283169380747
474 482 -5.5914906026642965
474 483 -1.724759615362153
474 484 -1.9187843406716865
474 485 -5.011869331297747E-1
474 486 3.0468750000649675E-1
474 487 -1.612723214311837
474 494 -7.244488708639998E-1
474 495 1.9061972273518508
474 496 -4.624934524814092E-1
474 527 -9.620053558368814E-1
474 547 -1.5136860868207431
474 581 3.0628529807564375E-1
474 582 -1.0652485920837185
474 595 -4.10850070835213
474 596 1.5553668950031845
474 597 -1.921934112569033E-1
474 612 6.749084027737636E-1
474 613 2.029926693048282
475 458 -8.891601562428562E-1
475 459 -3.0537297599840265
475 460 1.058523995499847
475 465 1.1662733730858492
475 466 -3.2224985682814267
475 467 3.4119754768939434
475 468 2.589347375348228E-1
475 469 -3.492465023118309
475 470 -1.7856629013966174
475 471 8.837429896152811E-1
475 472 -3.762700040591444E1
475 473 9.848300416998734
475 474 -3.598836602646164E-1
475 475 5.52624079924803E1
475 476 -8.36227561262626
475 477 -1.3854207465985946E-1
475 478 -2.894109495340223
475 481 2.131139393680014
475 482 -1.224759615362152
475 483 -6.226105987208065
475 484 -2.411000457855688
475 485 3.046875000064964E-1
475 486 2.498813066855477
475 487 8.872767857191306E-1
475 494 1.2067010897176796E-1
475 495 -2.422902376885891
475 496 9.754175689470628E-1
475 527 1.8115422314110399
475 547 -1.9308050317877745
475 581 -1.513686086820742
475 582 -2.3105283120042293
475 595 1.0553668950031843
475 596 -1.3071041067216613
475 597 -4.8629927271039036E-1
475 612 -1.6137283169380756
475 613 1.5971746894203578
476 458 1.1701311384170148
476 459 1.3747442335912103
476 460 -3.739874530258085
476 465 -8.529042313980761E-1
476 466 3.411975476893943
476 467 -4.402460084092513
476 468 3.788389089051877E-1
476 469 -2.5483117109263964
476 470 -5.709911729177138
476 471 -3.911807980959038
476 472 1.0889967083671017E1
476 473 -8.612751714750512E1
476 474 4.531061255440338
476 475 -8.36227561262626
476 476 1.0510923034540457E2
476 477 -2.4229023768858924
476 478 9.754175689470647E-1
476 481 1.5971746894203558
476 482 -1.9187843406716851
476 483 -3.0062385530895543
476 484 -7.356731314342888
476 485 -1.6127232143118373
476 486 8.872767857191312E-1
476 487 1.1259389172225278
476 494 1.90619722735185
476 495 -3.16421765866172
476 496 2.3422138792153147E-1
476 527 -4.624934524814097E-1
476 547 -2.3105283120042293
476 581 -1.0652485920837185
476 582 3.037341885140127
476 595 -1.92193411256904E-1
476 596 -4.8629927271038986E-1
476 597 1.0145304671375763
476 612 2.0299266930482815
476 613 -2.055053878885965E-2
477 458 -6.458333333365741E-1
477 459 -1.330357142842883
477 460 -1.5625000000084215
477 461 -6.458333333292657E-1
477 462 -2.2827380951008758
477 463 1.5624999999727298
477 471 7.278191660704272E-1
477 472 5.099857476748065E-2
477 473 -5.466171190384546E-1
477 474 1.2067010897176803E-1
477 475 -1.3854207465985946E-1
477 476 -2.4229023768858924
477 477 5.294677720845006E1
477 478 -2.2819241469060362E1
477 479 -2.395397168809488E1
477 491 7.278402293194445E-1
477 492 1.0037366956963938
477 493 5.46906707645767E-1
477 494 2.2830759162537784E-1
477 495 -2.130899297142503
477 496 2.832224791543558
477 499 4.036253445108238E-1
477 500 -7.012996572695731E-1
477 505 1.206999872442717E-1
477 506 -1.3835181359901744E-1
477 507 2.42260764720185
477 521 5.898069441266063E-1
477 522 -1.5274122237698942
477 523 1.8612853132235152
477 527 -1.7007738306124645E-1
477 532 -1.1044706752444741E-1
477 533 2.5737330118225205E-1
477 534 -1.861285313294252
477 547 -9.79939980801136E-1
477 548 -8.08572200827828E-1
477 549 -1.0883312921672699
477 550 -1.4014278279023447E-11
477 581 -5.380060537893578E-1
477 582 -2.0695934308301835E-5
478 458 -5.983072916634833E-1
478 459 -9.310825892411926E-1
478 460 8.300781250063829E-1
478 464 -1.8458232850728875
478 465 1.539899569486709
478 466 -6.888218718532038E-1
478 467 -1.743962203097511
478 474 1.8115422314110403
478 475 -2.894109495340223
478 476 9.754175689470647E-1
478 477 -2.2819241469060362E1
478 478 4.286244363428266E1
478 485 -1.7716346153954858
478 486 -7.245154151430869
478 487 -3.1129807692587574
478 494 -1.7007738305827097E-1
478 495 2.8322247915435588
478 496 -1.4532084221262547
478 517 3.997075031656877E-1
478 518 3.784961826560738E-1
478 521 8.033262129207019E-1
478 522 -1.189072131047131
478 523 -1.861285313287798
478 524 1.7328592804984357
478 525 -4.978995523541835
478 526 1.7459074473145182
478 527 -3.6845448285518495E-1
478 538 -1.9262725334050712
478 539 -1.0510664860658514
478 540 2.831033149643255
478 547 1.139467268133459
478 548 -1.5343240578051267
478 549 -3.5854389976256795E-1
478 550 -1.6296350885774216
478 581 8.173556670004845E-2
478 582 2.0791453123689024E-1
479 461 -5.983072916689534E-1
479 462 -9.310825893884966E-1
479 463 -8.300781250040976E-1
479 477 -2.395397168809488E1
479 479 4.3925073985783584E1
479 480 1.5399603906019554
479 494 5.286253445100312E-1
479 495 -7.012996572695734E-1
479 497 3.997075031737152E-1
479 498 -3.78496182680358E-1
479 499 -1.1846106718619207
479 500 -7.029641605808277E-1
479 503 -6.887943738328828E-1
479 504 1.7438196029113273
479 505 1.8115517744381258
479 506 -2.8944847473346504
479 507 -9.753811753767887E-1
479 508 -1.7716346153951037
479 509 -7.24515415149264
479 510 3.11298076930175
479 531 -1.8458232850077285
479 532 2.6006462634775085
479 533 -6.281324418150427
479 534 1.1541589417550084E-1
479 544 -1.8426055375523815
479 545 -1.0048036302550685
479 546 -2.769618651129949
479 547 1.231748582140913
479 548 -1.5249214255550467
479 549 -3.1138368436772623E-1
479 550 1.5939710292396247
479 581 4.15882658320696E-2
479 582 -2.0834934358660973E-1
480 479 1.5399603906019554
480 480 2.431616189051009E1
480 488 -8.105445023985169E-1
480 489 -9.385463169626772E-1
480 490 9.10212717921772E-1
480 497 -3.5893080768342442
480 498 1.5716145356378102
480 499 -2.0285754235848708
480 500 -3.0778636629740865
480 501 1.2114930787878495
480 502 -7.563037025100241E-1
480 503 -2.22186645976537
480 504 1.3921103449540038
480 505 -1.2174454494539666
480 506 1.1659007199091844
480 507 8.527754776932845E-1
480 508 -3.6628224206404774
480 509 -1.4765624999934712
480 510 -1.757812499969123
480 511 -5.39306087005784E-1
480 512 -1.0957031250003415
480 513 2.5809151786242207E-1
480 531 1.2114930787906408
480 544 -2.606144258074867
480 545 1.3622823168256302
480 546 -7.503821126026428E-2
480 547 -9.958061100023783E-1
480 559 -1.182316555611894
480 565 -6.665973189731129E-1
480 566 -1.7942021321835182
480 567 -5.328752957848574E-1
480 576 -7.6568448301998515
480 577 2.0315570589924956
480 578 -1.0560882372367892
480 581 -3.562569677325061E-1
480 582 2.2711770156658524
481 465 2.0295451032114986
481 466 -3.0285942133252854
481 467 -2.0450184137523708E-1
481 468 -1.373702344558814
481 469 -5.544020584651173
481 470 -1.7812418952844848
481 474 -1.6137283169380747
481 475 2.131139393680014
481 476 1.5971746894203558
481 481 2.337326201842625E1
481 519 7.067382350298483E-1
481 520 -5.328488011210499
481 547 -2.5082427730101093
481 555 7.474359078032564E-1
481 581 -5.58923844865333E-2
481 582 -3.065448066099082
481 586 1.3364829077980822
481 587 -2.3040500009280307
481 588 -1.1006897176784147
481 595 1.9696188753955277
481 596 -4.651626519547658
481 597 2.904672651174794
481 609 -1.344596375866411
481 610 -2.1393793094335067
481 611 -6.2176937157292556E-2
481 612 -1.6544656995851237
481 613 9.64775209196105E-1
482 455 -3.463925500809797
482 456 -6.484374999973241E-1
482 457 -1.6685267857402117
482 458 -1.141834077428129
482 459 -1.777343749998414E-1
482 460 7.324218750118557E-1
482 465 -5.393060869760387E-1
482 466 -1.0957031250033709
482 467 -2.580915178544297E-1
482 468 -2.1368055556025882
482 469 4.8125000001978707E-1
482 470 1.0937500000276639
482 474 -5.5914906026642965
482 475 -1.224759615362152
482 476 -1.9187843406716851
482 482 1.5801331400196556E1
482 483 1.029134615348015
482 484 1.6338141025665818
482 485 -2.9279695767157072
482 486 1.6362499999948859
482 487 3.8541666666022545E-1
483 455 -1.4843749999732428E-1
483 456 -1.9639255007950411
483 457 2.362351190627251E-1
483 458 2.597656249998219E-1
483 459 1.7066592256921737E-1
483 460 -3.0924479167513297E-1
483 465 -1.0957031250033713
483 466 -2.414306086921548
483 467 1.3044084821591782
483 468 4.37500000201243E-2
483 469 -8.243055556089558E-1
483 470 -5.2083333353786565E-2
483 474 -1.724759615362153
483 475 -6.226105987208065
483 476 -3.0062385530895543
483 482 1.029134615348015
483 483 1.6985946784671228E1
483 484 3.774839743575537
483 485 1.6362499999948867
483 486 -5.727969576706833
483 487 -1.9479166666789665
484 455 -1.6685267857402122
484 456 -3.59002976171142E-1
484 457 -4.991845001957042
484 458 7.324218750118564E-1
484 459 2.115885416610101E-1
484 460 -1.3985305060143025
484 465 -2.580915178544292E-1
484 466 1.3044084821591788
484 467 -4.4885115499445816E-1
484 468 1.0937500000276636
484 469 -5.729166666899288E-1
484 470 -2.5201388889547554
484 474 -1.9187843406716865
484 475 -2.411000457855688
484 476 -7.356731314342888
484 482 1.6338141025665818
484 483 3.774839743575537
484 484 1.9779145808070815E1
484 485 3.85416666660226E-1
484 486 -1.9479166666789678
484 487 -3.063048941807369
485 455 -1.963925500782731
485 456 -1.4843750000322098E-1
485 457 2.3623511904841105E-1
485 458 -1.5772569444478384
485 459 -2.7343749999844824E-1
485 460 3.255208333378471E-1
485 464 4.374999999456042E-2
485 465 -3.6628224206688635
485 466 -1.4765624999879736
485 467 1.7578125000274656
485 474 -5.011869331297747E-1
485 475 3.046875000064964E-1
485 476 -1.6127232143118373
485 478 -1.7716346153954858
485 482 -2.9279695767157072
485 483 1.6362499999948867
485 484 3.85416666660226E-1
485 485 1.6337236467394582E1
485 486 1.6853846153891858
485 487 6.60256410286863E-1
485 496 -1.700434981721717
485 517 -8.243055555674575E-1
485 518 -5.2083333327257675E-2
485 527 -4.879769536082215
486 455 -6.484375000032209E-1
486 456 -3.4639255007679743
486 457 -1.6685267857247887
486 458 -7.109374999973336E-1
486 459 -2.8897569444228095
486 460 1.3671875000036462
486 464 -2.1368055555631944
486 465 -1.4765624999879758
486 466 -1.7878224206384385
486 467 1.9531249999224126E-1
486 474 3.0468750000649675E-1
486 475 2.498813066855477
486 476 8.872767857191312E-1
486 478 -7.245154151430869
486 482 1.6362499999948859
486 483 -5.727969576706833
486 484 -1.9479166666789678
486 485 1.6853846153891858
486 486 2.0752621082674636E1
486 487 3.1858974359347085
486 496 -3.1129807692587588
486 517 4.812499999934475E-1
486 518 1.093750000012788
486 527 -1.2716346153954852
487 455 -3.5900297620045957E-1
487 456 -1.6685267857247892
487 457 -4.9918450019849345
487 458 8.463541666804717E-1
487 459 1.3671875000036466
487 460 -3.3689236111570944
487 464 1.0937500000127864
487 465 1.7578125000274663
487 466 1.9531249999224043E-1
487 467 -1.8562748015979562
487 474 -1.612723214311837
487 475 8.872767857191306E-1
487 476 1.1259389172225278
487 478 -3.1129807692587574
487 482 3.8541666666022545E-1
487 483 -1.9479166666789665
487 484 -3.063048941807369
487 485 6.60256410286863E-1
487 486 3.1858974359347085
487 487 2.220424501459967E1
487 496 -7.529952686329349
487 517 -5.729166666698837E-1
487 518 -2.520138888945497
487 527 -1.1051968864728448
488 461 5.601781728323592E-1
488 462 3.7353515625001354E-1
488 463 1.6566685267949322E-1
488 480 -8.105445023985169E-1
488 488 5.28039987083622
488 489 1.0806361607122237
488 490 -1.9501355229915547
488 497 5.504712301808218E-1
488 498 -3.8876488096080897E-1
488 501 2.5781250000322753E-1
488 502 -1.6927083333189702E-1
488 503 -9.385463169626767E-1
488 504 3.149746226729002E-1
488 508 -1.963925500803407
488 509 -6.484375000010598E-1
488 510 3.5900297619860666E-1
488 511 -3.4639255008071137
488 512 -1.4843749999862427E-1
488 513 1.6685267857332609
488 531 2.3437499996895733E-2
488 559 -1.5265376984036255E-1
489 461 3.7353515625002465E-1
489 462 5.601781728270756E-1
489 463 1.6566685267834066E-1
489 480 -9.385463169626772E-1
489 488 1.0806361607122237
489 489 5.280399870814273
489 490 -1.9501355229744224
489 497 2.5781249999699585E-1
489 498 -1.6927083332863502E-1
489 501 5.504712301599695E-1
489 502 -3.8876488095360096E-1
489 503 -8.10544502382519E-1
489 504 3.1497462266733267E-1
489 508 -1.4843750000106004E-1
489 509 -3.4639255007978056
489 510 1.6685267857273844
489 511 -6.48437499998624E-1
489 512 -1.9639255008015146
489 513 3.590029761836002E-1
489 531 -1.5265376981947892E-1
489 559 2.3437500003116785E-2
490 461 -1.1335100446522797E-1
490 462 -1.1335100446440799E-1
490 463 -2.8046277105079254E-1
490 480 9.10212717921772E-1
490 488 -1.9501355229915547
490 489 -1.9501355229744224
490 490 7.614922668143535
490 497 -5.264136904876607E-1
490 498 1.1300843254379362
490 501 -5.26413690482425E-1
490 502 1.130084325413782
490 503 9.102127179086809E-1
490 504 3.890614560692638E-1
490 508 -2.362351190502645E-1
490 509 1.6685267857273827
490 510 -4.991845002020387
490 511 1.6685267857332606
490 512 -2.3623511905774774E-1
490 513 -4.9918450019933385
490 531 2.4739583334293913E-1
490 559 2.4739583333967577E-1
491 461 -4.0801566328068206E-1
491 462 -4.258653846140176E-1
491 463 -5.17731227091624E-1
491 471 -1.888395729383789E1
491 472 -2.6639206640545705E-2
491 473 5.060773377769083E-1
491 477 7.278402293194445E-1
491 491 6.681204442137434E1
491 492 4.8080627981720875E-1
491 493 -2.5523550713165326
491 494 1.148870409315382
491 495 -7.748115667421572E-2
491 505 -3.5910683623549915E1
491 506 8.837403335592268E-1
491 507 3.9093304246042186
491 547 -5.830125442479557E-1
491 581 -1.9882878975851126
491 582 6.20637393540958E-2
491 598 1.0361107454382286
491 602 -1.5579608185630935
491 603 -2.2213789765554748E-1
491 604 1.1504835621391607
491 605 -2.5456242497621564
491 606 -3.8108360180463585E-1
491 607 -1.7068141557941439
491 655 -3.0588618746290277
491 656 -4.4848341791490653E-1
491 657 -1.3486107454360936
491 658 -3.32563904113345
491 659 4.4848341791490837E-1
491 671 4.01227537684271E-1
491 681 -2.8548137789885266
491 682 -8.548757454174513E-1
491 683 -7.681716012490237E-1
491 711 2.5729294106401452
491 712 3.070981482490223E-1
492 461 -3.633653846144601E-1
492 462 7.254119020392303E-1
492 463 4.149229331279576E-1
492 471 -2.6639206640544803E-2
492 472 -2.0278231079233997E1
492 473 1.9794875751887457
492 477 1.0037366956963938
492 491 4.8080627981720875E-1
492 492 6.995947972996238E1
492 493 1.4296577379926592E1
492 494 7.278402293194445E-1
492 495 5.469067076457674E-1
492 505 1.008740333558345
492 506 -3.7632668727892245E1
492 507 -1.0895250639975174E1
492 547 -3.4740677010124807
492 581 -5.830125442479548E-1
492 582 -4.3808168090538874E-1
492 598 -2.42452869039343
492 602 -3.4713789765466585E-1
492 603 -3.9922911315708803E-1
492 604 1.0737486430593928
492 605 -4.4358360180419343E-1
492 606 -2.726804825000611
492 607 -1.0668834310299316
492 655 -4.4848341791490737E-1
492 656 -2.354439423478516
492 657 -2.7093998810439834
492 658 4.48483417914908E-1
492 659 -2.601490063712919
492 671 2.051464959873771
492 681 -8.548757454174514E-1
492 682 -4.27316235408393
492 683 -1.4939766614447012
492 711 4.012275376842709E-1
492 712 7.164777458441502E-1
493 461 -8.657165750758774E-1
493 462 5.403808085818275E-1
493 463 2.2626991418751503
493 471 5.060773377769081E-1
493 472 1.9794875751887415
493 473 -4.583268129584836E1
493 477 5.46906707645767E-1
493 491 -2.5523550713165326
493 492 1.4296577379926592E1
493 493 1.5020384601427122E2
493 494 -7.748115667421573E-2
493 495 3.482117733711049
493 505 3.909330424604218
493 506 -9.853583973315857
493 507 -8.613385908865423E1
493 547 -4.3808168090538824E-1
493 581 6.206373935409559E-2
493 582 -3.857259141765401
493 598 -9.441881656377573
493 602 1.7754835621405851
493 603 1.0737486430596257
493 604 2.397537920787713
493 605 -1.706814155794142
493 606 -3.972405738768845E-1
493 607 -7.104559693295775
493 655 -1.348610745436093
493 656 -2.7093998810439794
493 657 -7.947942061599663
493 658 1.0361107454382283
493 659 -2.424528690393429
493 671 -7.86229867627678E-2
493 681 -1.393171601250448
493 682 -2.535643328104252
493 683 -4.207918516876887
493 711 6.550834962332759E-1
493 712 6.179900643772744
494 458 -7.946428571418069E-1
494 459 -4.1666666666879226E-1
494 460 -5.208333333426189E-1
494 461 -1.1755952379818961
494 462 -4.1666666666299707E-1
494 463 5.208333333138038E-1
494 471 7.676885032558634E-1
494 472 7.278191660704265E-1
494 473 7.769834804964353E-2
494 474 -7.244488708639998E-1
494 475 1.2067010897176796E-1
494 476 1.90619722735185
494 477 2.2830759162537784E-1
494 478 -1.7007738305827097E-1
494 479 5.286253445100312E-1
494 491 1.148870409315382
494 492 7.278402293194445E-1
494 493 -7.748115667421573E-2
494 494 5.186568991694336E1
494 495 1.3992558924236462
494 496 2.223593915740775
494 499 -2.4261911419978713E1
494 500 -3.622830430339522
494 505 -7.247931001292949E-1
494 506 1.206999872442715E-1
494 507 -1.9064182745428122
494 521 -4.3099128944063636E-1
494 522 2.356402774596178E-1
494 523 -8.559997796274852E-1
494 527 -2.2829359888019493E1
494 532 9.04013197160269E-1
494 533 -3.3961373419369173E-1
494 534 8.559997796276925E-1
494 547 -5.380060537893577E-1
494 548 -1.0824591043900547
494 549 -8.085722008278277E-1
494 550 -3.5842485963059874E-11
494 581 -2.6620602587289683
494 582 -1.5521944912766907E-5
495 458 -1.0416666666852439
495 459 -1.56250000000842
495 460 -6.071428571383903E-1
495 461 1.0416666666438215
495 462 1.5624999999727291
495 463 -9.88095237849886E-1
495 471 7.769834804964379E-2
495 472 -5.466171190384558E-1
495 473 3.100665289427213
495 474 1.9061972273518508
495 475 -2.422902376885891
495 476 -3.16421765866172
495 477 -2.130899297142503
495 478 2.8322247915435588
495 479 -7.012996572695734E-1
495 491 -7.748115667421572E-2
495 492 5.469067076457674E-1
495 493 3.482117733711049
495 494 1.3992558924236462
495 495 1.1684568787568135E2
495 496 -5.623630558655504E1
495 499 -2.5811637636794638
495 500 -5.6969814657386756E1
495 505 -1.9064182745428115
495 506 2.422607647201849
495 507 -3.1645999874455955
495 521 -1.3768331129449207
495 522 1.861285313223515
495 523 -5.595438607106329E-1
495 527 1.1819272490555124
495 532 1.3768331129829372
495 533 -1.8612853132942524
495 534 3.318247133983832E-1
495 547 -2.069593430797405E-5
495 548 -3.5841402293276076E-11
495 549 -1.40163350213898E-11
495 550 -6.202258278921124E-1
495 581 -1.5521944913410567E-5
495 582 -1.450349938577854
496 458 5.882626488206537E-1
496 459 8.300781250063822E-1
496 460 8.88113839334188E-1
496 464 3.784961826560748E-1
496 465 3.077634795040577
496 466 -1.7439622030975108
496 467 -5.144731862608706
496 474 -4.624934524814092E-1
496 475 9.754175689470628E-1
496 476 2.3422138792153147E-1
496 477 2.832224791543558
496 478 -1.4532084221262547
496 485 -1.700434981721717
496 486 -3.1129807692587588
496 487 -7.529952686329349
496 494 2.223593915740775
496 495 -5.623630558655504E1
496 496 7.676724094000605E1
496 517 -2.547080330786999
496 518 -5.706265559841809
496 521 1.3768331129815272
496 522 -1.8612853132877973
496 523 -6.679122433262527E-1
496 524 -1.1184891349243904
496 525 1.7459074473145184
496 526 -1.9826536821973575
496 527 -1.3025587551419
496 538 2.1928708610928878
496 539 2.8310331496432566
496 540 -3.1759303444919746
496 547 2.0791453123689022E-1
496 548 -9.457560914197397E-1
496 549 -1.6296350885774205
496 550 1.7312328261972922
496 581 -1.382382587200266
496 582 8.22942971891446E-1
497 479 3.997075031737152E-1
497 480 -3.5893080768342442
497 488 5.504712301808218E-1
497 489 2.5781249999699585E-1
497 490 -5.264136904876607E-1
497 497 1.1291595623661394E1
497 498 -4.198146240545665
497 499 -3.4897538764818776
497 500 2.547080330742057
497 503 1.21149307879064
497 504 6.827891488547091E-1
497 508 -8.243055555504977E-1
497 509 4.8124999998924456E-1
497 510 5.72916666657016E-1
497 528 5.150569889433864E-1
497 529 -1.9512001901075895E-1
497 530 -5.258730284422669E-1
497 531 -1.4099979159799776E-2
497 532 1.0951353495351988
497 533 -7.671066703615418E-1
497 534 4.4017463400832924E-1
497 544 -5.548891683454181
497 545 -1.373936413418495
497 546 1.0074721792134815
498 479 -3.78496182680358E-1
498 480 1.5716145356378102
498 488 -3.8876488096080897E-1
498 489 -1.6927083332863502E-1
498 490 1.1300843254379362
498 497 -4.198146240545665
498 498 1.0902925148373987E1
498 499 1.7844315212267188
498 500 -5.706265559704964
498 503 -7.563037025127742E-1
498 504 -1.117612793579478
498 508 5.208333332699594E-2
498 509 -1.0937499999839866
498 510 -2.5201388888822027
498 528 -3.7303174856530913E-1
498 529 -9.185082687347304E-2
498 530 3.875200296366793E-1
498 531 5.067860531160971E-1
498 532 -2.2946822315939158E-1
498 533 1.1251726297820546
498 534 -4.9619123790420705E-1
498 544 1.7812817030396502
498 545 8.577128624810747E-1
498 546 -2.5803210233777523
499 461 1.1579241061498795E-1
499 462 -2.4934895833423112E-1
499 463 -3.4644717260879354E-1
499 477 4.036253445108238E-1
499 479 -1.1846106718619207
499 480 -2.0285754235848708
499 494 -2.4261911419978713E1
499 495 -2.5811637636794638
499 497 -3.4897538764818776
499 498 1.7844315212267188
499 499 4.123981371963894E1
499 500 2.6965735923771437
499 503 1.539960390601955
499 504 -3.0778636629740865
499 505 -9.620637841431956E-1
499 506 1.811551774438126
499 507 4.625298460871587E-1
499 508 -4.87976953611124
499 509 -1.2716346153951035
499 510 1.1051968864816268
499 531 2.5908250317302206E-1
499 532 -4.2976620200996205
499 533 2.0173129301426873
499 534 -1.8359994187713877E-1
499 544 -1.5713224458182123E-1
499 545 -1.8426055375523815
499 546 -2.1804732603146637
499 547 4.158826583206844E-2
499 548 1.7671989966648647
499 549 -1.5249214255550458
499 550 9.38211217272727E-1
499 581 -3.045936821937458
499 582 1.3826047380087712
500 461 -5.882626488067024E-1
500 462 -8.300781250040974E-1
500 463 8.881138390384666E-1
500 477 -7.012996572695731E-1
500 479 -7.029641605808277E-1
500 480 -3.0778636629740865
500 494 -3.622830430339522
500 495 -5.6969814657386756E1
500 497 2.547080330742057
500 498 -5.706265559704964
500 499 2.6965735923771437
500 500 7.751910744215809E1
500 503 1.7438196029113264
500 504 -5.144631369852133
500 505 4.6252984608715714E-1
500 506 -9.753811753767865E-1
500 507 2.3406405621975557E-1
500 508 1.7004349817304978
500 509 3.1129807693017497
500 510 -7.529952686401687
500 531 -3.78496182680358E-1
500 532 -2.5800470378337786E-1
500 533 1.154158941755011E-1
500 534 -2.8245367536220547
500 544 -2.180473260314665
500 545 -2.7696186511299494
500 546 -3.2475086007017873
500 547 -2.0834934358661006E-1
500 548 9.382112172727282E-1
500 549 1.5939710292396243
500 550 1.9050828438247116
500 581 1.38260473800877
500 582 8.763414464283501E-1
501 480 1.2114930787878495
501 488 2.5781250000322753E-1
501 489 5.504712301599695E-1
501 490 -5.26413690482425E-1
501 501 1.129159562361345E1
501 502 -4.198146240512655
501 503 -3.5893080768616654
501 504 6.827891488690074E-1
501 505 3.9970750316601206E-1
501 506 -3.4897538764744938
501 507 2.547080330739707
501 511 4.8125000000341167E-1
501 512 -8.243055555751763E-1
501 513 5.729166666700058E-1
501 556 -1.951200190009153E-1
501 557 5.1505698891497E-1
501 558 -5.258730284355441E-1
501 559 -1.4099979180800831E-2
501 576 -1.3739364134174956
501 577 -5.548891683364447
501 578 1.0074721791757848
501 605 -7.67106670361289E-1
501 606 1.0951353495873917
501 607 4.401746339761189E-1
502 480 -7.563037025100241E-1
502 488 -1.6927083333189702E-1
502 489 -3.8876488095360096E-1
502 490 1.130084325413782
502 501 -4.198146240512655
502 502 1.0902925148312935E1
502 503 1.5716145356461093
502 504 -1.1176127936158584
502 505 -3.784961826695461E-1
502 506 1.7844315212231385
502 507 -5.7062655596895
502 511 -1.0937499999980234
502 512 5.208333334035692E-2
502 513 -2.5201388889013026
502 556 -9.185082689633148E-2
502 557 -3.7303174855332777E-1
502 558 3.87520029589978E-1
502 559 5.067860531484909E-1
502 576 8.577128624793077E-1
502 577 1.7812817029869077
502 578 -2.580321023313607
502 605 1.1251726297780238
502 606 -2.2946822317692878E-1
502 607 -4.9619123779642826E-1
503 479 -6.887943738328828E-1
503 480 -2.22186645976537
503 488 -9.385463169626767E-1
503 489 -8.10544502382519E-1
503 490 9.102127179086809E-1
503 497 1.21149307879064
503 498 -7.563037025127742E-1
503 499 1.539960390601955
503 500 1.7438196029113264
503 501 -3.5893080768616654
503 502 1.5716145356461093
503 503 2.5831960853100128E1
503 504 -4.893427144702256E-1
503 505 1.165900719909184
503 506 -3.2217332737636744
503 507 -3.4107844750674987
503 508 -1.4765624999934701
503 509 -1.7878224206255753
503 510 -1.9531249997397906E-1
503 511 -1.095703125000342
503 512 -2.4143060869895825
503 513 -1.3044084821283632
503 531 -1.1823165555972666
503 544 1.3622823168256313
503 545 -8.577207885226935
503 546 7.937069616648869E-1
503 547 1.4207800337056847E-1
503 559 1.2114930787878506
503 565 -1.7942021321835186
503 566 -6.66597318945483E-1
503 567 -1.1596630392092613
503 576 2.0315570589924947
503 577 -3.035408362245115
503 578 4.438386764101436E-1
503 581 -9.958061100023781E-1
503 582 1.852622418820955
504 479 1.7438196029113273
504 480 1.3921103449540038
504 488 3.149746226729002E-1
504 489 3.1497462266733267E-1
504 490 3.890614560692638E-1
504 497 6.827891488547091E-1
504 498 -1.117612793579478
504 499 -3.0778636629740865
504 500 -5.144631369852133
504 501 6.827891488690074E-1
504 502 -1.1176127936158584
504 503 -4.893427144702256E-1
504 504 2.2126073154069385E1
504 505 8.527754776932863E-1
504 506 -3.4107844750675014
504 507 -4.401002031101404
504 508 -1.7578124999691225
504 509 -1.953124999739795E-1
504 510 -1.856274801565757
504 511 2.5809151786242135E-1
504 512 -1.3044084821283604
504 513 -4.4885115504203055E-1
504 531 -3.889003948302816E-1
504 544 -3.131334493545418E-1
504 545 1.6270402950080334
504 546 -2.7486436786671997
504 547 1.8526224188209546
504 559 -3.889003948281095E-1
504 565 -1.1453216683669887E-2
504 566 -6.382409601146525E-1
504 567 1.1536647642130993E-1
504 576 -2.2275490389364228E-1
504 577 2.057434383083454E-1
504 578 -2.683645726791949
504 581 2.2711770156658524
504 582 -3.1122267363441507
505 461 -3.767271426969713
505 462 -1.1547851562573699
505 463 -1.1701311384147004
505 477 1.206999872442717E-1
505 479 1.8115517744381258
505 480 -1.2174454494539666
505 491 -3.5910683623549915E1
505 492 1.008740333558345
505 493 3.909330424604218
505 494 -7.247931001292949E-1
505 495 -1.9064182745428115
505 499 -9.620637841431956E-1
505 500 4.6252984608715714E-1
505 501 3.9970750316601206E-1
505 502 -3.784961826695461E-1
505 503 1.165900719909184
505 504 8.527754776932863E-1
505 505 5.3648008489685466E1
505 506 -3.581615373687518E-1
505 507 -4.526806559271102
505 508 -5.011869331096912E-1
505 509 3.0468750000644396E-1
505 510 1.6127232142941756
505 511 -5.59149060271433
505 512 -1.7247596153785556
505 513 1.9187843406948768
505 547 -1.5138192447978394
505 559 -1.8458232849977172
505 576 6.714072760883232E-1
505 577 -1.6136993859503093
505 578 -2.0301138427559704
505 581 3.077967431231738E-1
505 582 1.0651771518406394
505 605 -4.106454303829136
505 606 1.5539371214304434
505 607 1.9064554243977588E-1
506 461 -8.891601562574797E-1
506 462 -3.053729760299977
506 463 -1.0585239955706596
506 477 -1.3835181359901744E-1
506 479 -2.8944847473346504
506 480 1.1659007199091844
506 491 8.837403335592268E-1
506 492 -3.7632668727892245E1
506 493 -9.853583973315857
506 494 1.206999872442715E-1
506 495 2.422607647201849
506 499 1.811551774438126
506 500 -9.753811753767865E-1
506 501 -3.4897538764744938
506 502 1.7844315212231385
506 503 -3.2217332737636744
506 504 -3.4107844750675014
506 505 -3.581615373687518E-1
506 506 5.526311511127093E1
506 507 8.368679797659862
506 508 3.0468750000644446E-1
506 509 2.4988130668847055
506 510 -8.872767857328479E-1
506 511 -1.2247596153785558
506 512 -6.226105987295581
506 513 2.41100045788955
506 547 -1.928267766919819
506 559 2.5908250316524034E-1
506 576 -1.6136993859503095
506 577 2.1268007171487016
506 578 -1.5976676609805596
506 581 -1.5138192447978396
506 582 2.309929875615703
506 605 1.0539371214304427
506 606 -1.3036329417248773
506 607 4.865687664541102E-1
507 461 -1.1701311384147006
507 462 -1.3747442336692572
507 463 -3.7398745309207593
507 477 2.42260764720185
507 479 -9.753811753767887E-1
507 480 8.527754776932845E-1
507 491 3.9093304246042186
507 492 -1.0895250639975174E1
507 493 -8.613385908865423E1
507 494 -1.9064182745428122
507 495 -3.1645999874455955
507 499 4.625298460871587E-1
507 500 2.3406405621975557E-1
507 501 2.547080330739707
507 502 -5.7062655596895
507 503 -3.4107844750674987
507 504 -4.401002031101404
507 505 -4.526806559271102
507 506 8.368679797659862
507 507 1.0511176516309564E2
507 508 1.6127232142941754
507 509 -8.872767857328484E-1
507 510 1.125938917215341
507 511 1.9187843406948768
507 512 3.006238553130896
507 513 -7.356731314451327
507 547 2.309929875615701
507 559 -3.784961826695462E-1
507 576 -2.03011384275597
507 577 -1.5976676609805587
507 578 -2.5467045321644344E-2
507 581 1.0651771518406397
507 582 3.0396137628001174
507 605 1.9064554243977497E-1
507 606 4.8656876645411073E-1
507 607 1.0164176582536066
508 461 -1.5772569444110809
508 462 -2.7343750000108874E-1
508 463 -3.255208333353125E-1
508 479 -1.7716346153951037
508 480 -3.6628224206404774
508 488 -1.963925500803407
508 489 -1.4843750000106004E-1
508 490 -2.362351190502645E-1
508 497 -8.243055555504977E-1
508 498 5.208333332699594E-2
508 499 -4.87976953611124
508 500 1.7004349817304978
508 503 -1.4765624999934701
508 504 -1.7578124999691225
508 505 -5.011869331096912E-1
508 506 3.0468750000644446E-1
508 507 1.6127232142941754
508 508 1.633723646733424E1
508 509 1.6853846153865917
508 510 -6.602564103204537E-1
508 511 -2.9279695767078446
508 512 1.6362500000088398
508 513 -3.8541666667651614E-1
508 531 4.374999998884643E-2
509 461 -7.109375000014865E-1
509 462 -2.8897569444031985
509 463 -1.3671874999942382
509 479 -7.24515415149264
509 480 -1.4765624999934712
509 488 -6.484375000010598E-1
509 489 -3.4639255007978056
509 490 1.6685267857273827
509 497 4.8124999998924456E-1
509 498 -1.0937499999839866
509 499 -1.2716346153951035
509 500 3.1129807693017497
509 503 -1.7878224206255753
509 504 -1.953124999739795E-1
509 505 3.0468750000644396E-1
509 506 2.4988130668847055
509 507 -8.872767857328484E-1
509 508 1.6853846153865917
509 509 2.0752621082675113E1
509 510 -3.1858974359990113
509 511 1.6362500000088407
509 512 -5.727969576678661
509 513 1.947916666654932
509 531 -2.136805555561939
510 461 -8.463541666653316E-1
510 462 -1.3671874999942393
510 463 -3.368923611033075
510 479 3.11298076930175
510 480 -1.757812499969123
510 488 3.5900297619860666E-1
510 489 1.6685267857273844
510 490 -4.991845002020387
510 497 5.72916666657016E-1
510 498 -2.5201388888822027
510 499 1.1051968864816268
510 500 -7.529952686401687
510 503 -1.9531249997397906E-1
510 504 -1.856274801565757
510 505 1.6127232142941756
510 506 -8.872767857328479E-1
510 507 1.125938917215341
510 508 -6.602564103204537E-1
510 509 -3.1858974359990113
510 510 2.2204245014462167E1
510 511 -3.8541666667651703E-1
510 512 1.9479166666549306
510 513 -3.0630489417743987
510 531 -1.0937499999839873
511 461 -1.1418340773865663
511 462 -1.7773437499971223E-1
511 463 -7.32421875006398E-1
511 480 -5.39306087005784E-1
511 488 -3.4639255008071137
511 489 -6.48437499998624E-1
511 490 1.6685267857332606
511 501 4.8125000000341167E-1
511 502 -1.0937499999980234
511 503 -1.095703125000342
511 504 2.5809151786242135E-1
511 505 -5.59149060271433
511 506 -1.2247596153785558
511 507 1.9187843406948768
511 508 -2.9279695767078446
511 509 1.6362500000088407
511 510 -3.8541666667651703E-1
511 511 1.5801331400203614E1
511 512 1.0291346153649814
511 513 -1.63381410260962
511 559 -2.1368055555819727
512 461 2.5976562500072997E-1
512 462 1.706659226141754E-1
512 463 3.092447916581111E-1
512 480 -1.0957031250003415
512 488 -1.4843749999862427E-1
512 489 -1.9639255008015146
512 490 -2.3623511905774774E-1
512 501 -8.243055555751763E-1
512 502 5.208333334035692E-2
512 503 -2.4143060869895825
512 504 -1.3044084821283604
512 505 -1.7247596153785556
512 506 -6.226105987295581
512 507 3.006238553130896
512 508 1.6362500000088398
512 509 -5.727969576678661
512 510 1.9479166666549306
512 511 1.0291346153649814
512 512 1.698594678472634E1
512 513 -3.774839743598187
512 559 4.375000000296986E-2
513 461 -7.324218750063993E-1
513 462 -2.1158854167153773E-1
513 463 -1.3985305059467583
513 480 2.5809151786242207E-1
513 488 1.6685267857332609
513 489 3.590029761836002E-1
513 490 -4.9918450019933385
513 501 5.729166666700058E-1
513 502 -2.5201388889013026
513 503 -1.3044084821283632
513 504 -4.4885115504203055E-1
513 505 1.9187843406948768
513 506 2.41100045788955
513 507 -7.356731314451327
513 508 -3.8541666667651614E-1
513 509 1.947916666654932
513 510 -3.0630489417743987
513 511 -1.63381410260962
513 512 -3.774839743598187
513 513 1.977914580810916E1
513 559 -1.0937499999980242
514 252 2.754578616575126E-1
514 253 -2.817500791900063E-1
514 254 5.533532186047994E-1
514 266 -8.305630923698084E-1
514 267 -6.676200190013027E-1
514 268 -8.015953964886058E-1
514 464 1.798799809885841E-1
514 514 9.677245584833864
514 515 -2.860800795334768E-1
514 516 3.893777645697729
514 517 5.150569889180809E-1
514 518 3.730317485532263E-1
514 524 -3.7092061550704374
514 525 5.563500158320642E-1
514 526 -2.50660701090173
514 535 -3.6346940629871587
514 536 -8.351734780671818E-1
514 537 -1.2283069458164095
514 538 -2.2932971249820513
514 539 1.3343936589713192
514 540 -2.836532596490093E-1
515 252 3.0749920806812825E-2
515 253 -8.697151769109412E-1
515 254 5.136394711070776E-1
515 266 -2.9262001900353224E-1
515 267 -1.4395396911884344
515 268 -1.8491020959553164
515 464 -6.349108895044898E-1
515 514 -2.860800795334768E-1
515 515 8.72120754456486
515 516 -4.331878203120139E-1
515 517 -1.9512001900918627E-1
515 518 9.185082692011756E-2
515 524 2.4385001583524468E-1
515 525 -3.2017256560570635
515 526 1.540918413289575
515 535 -8.351734780671811E-1
515 536 -1.1123943892854775
515 537 -2.2732329918431676E-1
515 538 1.334393658971319
515 539 -1.462921741618454
515 540 3.6320450413487626E-1
516 252 3.992658667324638E-1
516 253 -7.337706729067561E-2
516 254 8.410187349846606E-1
516 266 -5.75477774349783E-2
516 267 -1.849102095955317
516 268 -3.2093106949738317
516 464 4.5925413460261183E-1
516 514 3.893777645697729
516 515 -4.331878203120139E-1
516 516 1.2445795612761607E1
516 517 5.258730284553741E-1
516 518 3.875200295806711E-1
516 524 -1.5393451061240915
516 525 1.5409184132895757
516 526 -8.328929584305664
516 535 -2.125195844772185
516 536 -5.947266068668117E-1
516 537 -1.8471935958402466
516 538 -1.096827812554312
516 539 9.502210425326304E-1
516 540 -2.889005022071981E-1
517 455 5.504712301823345E-1
517 456 2.578124999965791E-1
517 457 5.264136904841931E-1
517 464 -1.4099979160344528E-2
517 465 -3.589308076864564
517 466 1.211493078786451
517 467 -6.82789148889617E-1
517 478 3.997075031656877E-1
517 485 -8.243055555674575E-1
517 486 4.812499999934475E-1
517 487 -5.729166666698837E-1
517 496 -2.547080330786999
517 514 5.150569889180809E-1
517 515 -1.9512001900918627E-1
517 516 5.258730284553741E-1
517 517 1.1291595623746321E1
517 518 4.198146240567054
517 524 1.0951353495985898
517 525 -7.671066703588897E-1
517 526 -4.401746339862256E-1
517 527 -3.48975387653234
517 538 -5.548891683480965
517 539 -1.373936413413745
517 540 -1.0074721791738956
518 455 3.887648809604932E-1
518 456 1.692708333352529E-1
518 457 1.130084325442114
518 464 -5.067860531782544E-1
518 465 -1.571614535672719
518 466 7.563037025091319E-1
518 467 -1.1176127936370508
518 478 3.784961826560738E-1
518 485 -5.2083333327257675E-2
518 486 1.093750000012788
518 487 -2.520138888945497
518 496 -5.706265559841809
518 514 3.730317485532263E-1
518 515 9.185082692011756E-2
518 516 3.875200295806711E-1
518 517 4.198146240567054
518 518 1.090292514847306E1
518 524 2.2946822316889082E-1
518 525 -1.1251726297781657
518 526 -4.9619123773455875E-1
518 527 -1.784431521249623
518 538 -1.7812817030000647
518 539 -8.577128624769444E-1
518 540 -2.580321023336929
519 465 -6.662975864555665E-1
519 466 -1.7939902460304669
519 467 1.11983337375261E-2
519 481 7.067382350298483E-1
519 519 2.629222030144711E1
519 520 1.8766489256900518
519 535 -4.234536526882643E-2
519 536 1.3611308123162418
519 537 -1.7219243442052534E-1
519 538 -1.0017798733735752E1
519 539 -5.03604525265755E-1
519 540 1.3385444715771024
519 547 -7.710929172002257E-1
519 548 1.1620338497939022
519 549 7.526108406461308E-1
519 550 1.1375551097329772
519 552 -6.0490959118678145
519 553 -2.95205671742872
519 554 -1.447016302394605
519 555 5.016840848038527E-1
519 581 -6.777439786991739
519 582 -1.1654903712082663
519 609 -2.757888776290942
519 610 1.3236155922428945
519 611 -1.831744906899142E-1
519 612 -1.1433879906303708
519 613 -2.110840113814781E-2
520 465 -1.7939902460304669
520 466 -6.688159286955301E-1
520 467 6.381421986085589E-1
520 481 -5.328488011210499
520 519 1.8766489256900518
520 520 2.4020524405554838E1
520 535 1.3611308123162418
520 536 -2.7598963038363875
520 537 7.636979551565252E-1
520 538 -5.036045252657548E-1
520 539 -4.436577308351746
520 540 -4.0912594681612235E-2
520 547 -5.9101182610975
520 548 7.526108406461302E-1
520 549 3.155008728294037E-1
520 550 -2.58901919947615
520 552 -2.952056717428719
520 553 -5.127199153231904
520 554 -1.2340921114145313
520 555 -2.9667073515007575E-1
520 581 -7.710929172002247E-1
520 582 2.6525984737311683
520 609 1.3236155922428945
520 610 -1.0493031196067426E-1
520 611 3.529115729184302E-1
520 612 7.067382350298472E-1
520 613 -2.4665555969231379E-1
521 259 4.7092411485677055E-1
521 260 -5.922905967559403E-1
521 261 1.473505614183647E-1
521 477 5.898069441266063E-1
521 478 8.033262129207019E-1
521 494 -4.3099128944063636E-1
521 495 -1.3768331129449207
521 496 1.3768331129815272
521 521 2.173217139714542E1
521 522 -6.299267152625068E-1
521 523 -3.5830175705736282
521 524 -1.169564295478446E1
521 525 5.248329298303552E-2
521 526 4.579302251893421
521 527 -1.1486207205960564
521 532 -2.5121650923321357
521 533 -6.281682867646131E-2
521 534 -8.711674886299805E-1
521 541 -2.066642230839622
521 542 -1.6058230933543538E-1
521 543 -2.7246775414478447E-1
521 548 -4.349033224009278
521 549 -7.351599032960729E-17
521 550 1.0952575104973553E-15
522 259 -3.214572633979228E-1
522 260 -3.915401674782108E-1
522 261 1.2083566953077958
522 477 -1.5274122237698942
522 478 -1.189072131047131
522 494 2.356402774596178E-1
522 495 1.861285313223515
522 496 -1.8612853132877973
522 521 -6.299267152625068E-1
522 522 2.112488634907391E1
522 523 9.373980513575633E-1
522 524 3.1649959646593104E-2
522 525 -1.0587217623313341E1
522 526 -3.102142189294746E-1
522 527 5.949928795866264E-1
522 532 -1.2531682870040334E-1
522 533 -2.0809595658663693
522 534 3.9884685305721324E-1
522 541 2.144176906679957E-1
522 542 -3.609071347995252
522 543 -2.2343873807288146
522 548 -7.839135858824701E-17
522 549 -1.7396132896037113
522 550 -1.3179833555850028E-15
523 259 -1.3431610521865986E-1
523 260 1.208356695307795
523 261 1.644076111773111
523 477 1.8612853132235152
523 478 -1.861285313287798
523 494 -8.559997796274852E-1
523 495 -5.595438607106329E-1
523 496 -6.679122433262527E-1
523 521 -3.5830175705736282
523 522 9.373980513575633E-1
523 523 4.014835467236951E1
523 524 3.5376355852096455
523 525 -3.102142189294744E-1
523 526 -2.630887423655834E1
523 527 8.55999779638909E-1
523 532 -6.866748865033878E-2
523 533 3.9884685305721285E-1
523 534 -7.896713089945358
523 541 2.4836557922155694E-1
523 542 -2.2343873807288137
523 543 -4.619774063998324
523 548 3.810953015549042E-16
523 549 -9.851440458211154E-16
523 550 -1.7396132896037104
524 259 3.267157489957924E-1
524 260 3.8665954624999604E-1
524 261 -7.065002203854603E-1
524 266 -2.5834374788297345
524 267 -3.149792903025991E-1
524 268 5.527898739361887E-1
524 464 -3.2960667036000424E-1
524 478 1.7328592804984357
524 496 -1.1184891349243904
524 514 -3.7092061550704374
524 515 2.4385001583524468E-1
524 516 -1.5393451061240915
524 517 1.0951353495985898
524 518 2.2946822316889082E-1
524 521 -1.169564295478446E1
524 522 3.1649959646593104E-2
524 523 3.5376355852096455
524 524 2.795805927514132E1
524 525 -2.60515935730647
524 526 -2.198744212078385
524 527 -2.654826222181552
524 535 1.423098710436725
524 536 -1.700421648055725
524 537 1.7126887751217805
524 538 -5.468210547563889
524 539 2.3203661773471564
524 540 2.8221826690291674
524 548 -4.691685725742352
524 549 2.3478198644737233E-1
524 550 -3.291686452953345
525 259 5.741595462502014E-1
525 260 -5.989375432112263E-1
525 261 -1.861285313288032
525 266 1.0168737635984346E-1
525 267 -5.819992001601602
525 268 4.410962286334179E-1
525 464 -2.471173776051473E-3
525 478 -4.978995523541835
525 496 1.7459074473145184
525 514 5.563500158320642E-1
525 515 -3.2017256560570635
525 516 1.5409184132895757
525 517 -7.671066703588897E-1
525 518 -1.1251726297781657
525 521 5.248329298303552E-2
525 522 -1.0587217623313341E1
525 523 -3.102142189294744E-1
525 524 -2.60515935730647
525 525 2.936514862027805E1
525 526 4.0010119508787806E-1
525 527 1.2328592805014122
525 535 -1.7004216480557255
525 536 2.3838306573646326
525 537 1.6242331316002645
525 538 2.3203661773471573
525 539 -4.096962470633692
525 540 -2.2529880404243383
525 548 2.3478198644737142E-1
525 549 -2.4626772855078713
525 550 -2.0259621350564394E-1
526 259 -1.8566688704421502E-1
526 260 -1.861285313288032
526 261 -7.777765549231476E-2
526 266 1.8076606440752785E-1
526 267 4.4109622863341946E-1
526 268 -2.231269646485246
526 464 -1.1251726297781657
526 478 1.7459074473145182
526 496 -1.9826536821973575
526 514 -2.50660701090173
526 515 1.540918413289575
526 516 -8.328929584305664
526 517 -4.401746339862256E-1
526 518 -4.9619123773455875E-1
526 521 4.579302251893421
526 522 -3.102142189294746E-1
526 523 -2.630887423655834E1
526 524 -2.198744212078385
526 525 4.0010119508787806E-1
526 526 4.351334922739653E1
526 527 -6.72060563487997E-1
526 535 1.7126887751217805
526 536 1.624233131600266
526 537 2.4180998856867912
526 538 2.822182669029169
526 539 -2.2529880404243405
526 540 -3.885325642018853
526 548 -3.2916864529533454
526 549 -2.0259621350564366E-1
526 550 -2.62042742829099
527 458 1.1579241074323367E-1
527 459 -2.493489583313588E-1
527 460 3.4644717262589503E-1
527 464 2.590825031676399E-1
527 465 -2.02807157370365
527 466 1.5398995694867081
527 467 3.0776347950405762
527 474 -9.620053558368814E-1
527 475 1.8115422314110399
527 476 -4.624934524814097E-1
527 477 -1.7007738306124645E-1
527 478 -3.6845448285518495E-1
527 485 -4.879769536082215
527 486 -1.2716346153954852
527 487 -1.1051968864728448
527 494 -2.2829359888019493E1
527 495 1.1819272490555124
527 496 -1.3025587551419
527 517 -3.48975387653234
527 518 -1.784431521249623
527 521 -1.1486207205960564
527 522 5.949928795866264E-1
527 523 8.55999779638909E-1
527 524 -2.654826222181552
527 525 1.2328592805014122
527 526 -6.72060563487997E-1
527 527 3.978645239309101E1
527 538 -1.396537226688379E-1
527 539 -1.9262725334050719
527 540 2.1928708610928886
527 547 8.173556670004868E-2
527 548 1.3693869161970114
527 549 -1.5343240578051276
527 550 -9.457560914197396E-1
527 581 -3.139570824410228
527 582 -1.3823825872002677
528 310 2.7545786168089215E-1
528 311 -2.8175007919394296E-1
528 312 -5.533532185719884E-1
528 313 -2.8341556276374544
528 314 6.0791083461538775E-2
528 315 5.833044895413104E-1
528 329 -4.019259362096708
528 330 -1.8290549043990563
528 331 -8.236632181240371E-1
528 497 5.150569889433864E-1
528 498 -3.7303174856530913E-1
528 528 1.3772594227334679E1
528 529 5.487250059410553E-2
528 530 -2.032467994498323E-1
528 531 1.7987998099003405E-1
528 532 -4.78490912220335
528 533 -7.773207360730636E-1
528 534 -6.686210293344217E-1
528 544 -4.733921126067688
528 545 2.113727665205566
528 546 -1.7367051642181425E-1
528 548 1.8091361600462448
528 549 4.78854489414818E-1
528 550 2.2122820409260924
529 310 3.0749920807242592E-2
529 311 -8.697151769035629E-1
529 312 -5.136394709994123E-1
529 313 4.3579108346233175E-1
529 314 -5.220887493741309
529 315 2.7901170883063857
529 329 -1.8290549043990554
529 330 -2.3495748061878325
529 331 -5.641987059623034E-1
529 497 -1.9512001901075895E-1
529 498 -9.185082687347304E-2
529 528 5.487250059410553E-2
529 529 1.727570915280757E1
529 530 7.882439402104471E-2
529 531 -6.349108894884534E-1
529 532 -1.0898207360742516
529 533 -6.009897551127534
529 534 -2.5146660956501914
529 544 2.113727665205566
529 545 -6.117772068510664
529 546 6.904919887833435E-1
529 548 4.78854489414819E-1
529 549 3.9270488331517885
529 550 1.2492162837460632E-1
530 310 -3.992658667360439E-1
530 311 7.337706739834005E-2
530 312 8.410187350452389E-1
530 313 -1.6074312953750586E-1
530 314 2.7901170883063866
530 315 -5.420832445464638
530 329 7.322568083173697E-2
530 330 -1.967953982798096E-1
530 331 -1.412770942644793
530 497 -5.258730284422669E-1
530 498 3.875200296366793E-1
530 528 -2.032467994498323E-1
530 529 7.882439402104471E-2
530 530 1.557985422001966E1
530 531 -4.5925413455596703E-1
530 532 -1.6358829340756684
530 533 -2.5146660956501905
530 534 -8.209580174844342
530 544 6.395040364834884E-1
530 545 1.0347545038558859E-1
530 546 -2.901015568861465
530 548 2.212282040926092
530 549 1.2492162837460762E-1
530 550 1.1358061471136618
531 479 -1.8458232850077285
531 480 1.2114930787906408
531 488 2.3437499996895733E-2
531 489 -1.5265376981947892E-1
531 490 2.4739583334293913E-1
531 497 -1.4099979159799776E-2
531 498 5.067860531160971E-1
531 499 2.5908250317302206E-1
531 500 -3.78496182680358E-1
531 503 -1.1823165555972666
531 504 -3.889003948302816E-1
531 508 4.374999998884643E-2
531 509 -2.136805555561939
531 510 -1.0937499999839873
531 528 1.7987998099003405E-1
531 529 -6.349108894884534E-1
531 530 -4.5925413455596703E-1
531 531 8.461922671518098
531 532 -3.296066703611442E-1
531 533 -2.4711738432334623E-3
531 534 1.125172629782055
531 544 -1.3739364134184953
531 545 -2.506941442199999
531 546 4.410461958095023E-1
532 313 6.838604706948161E-1
532 314 -9.412743703302471E-1
532 315 4.5317361754178404E-1
532 477 -1.1044706752444741E-1
532 479 2.6006462634775085
532 494 9.04013197160269E-1
532 495 1.3768331129829372
532 497 1.0951353495351988
532 498 -2.2946822315939158E-1
532 499 -4.2976620200996205
532 500 -2.5800470378337786E-1
532 521 -2.5121650923321357
532 522 -1.2531682870040334E-1
532 523 -6.866748865033878E-2
532 528 -4.78490912220335
532 529 -1.0898207360742516
532 530 -1.6358829340756684
532 531 -3.296066703611442E-1
532 532 2.064767980877074E1
532 533 -7.917210554673261E-1
532 534 1.4564614922450496
532 541 -2.209267518459018
532 542 1.870485327253344E-1
532 543 -1.2218236593440135E-1
532 544 -2.887231048493631
532 545 1.4724318936227374
532 546 -2.384029239410026
532 548 -6.639454024573265
532 549 -8.719399613677596E-1
532 550 1.411766732243433
533 313 -4.20441037019368E-1
533 314 -1.4566513704345796
533 315 -7.020834514988076E-1
533 477 2.5737330118225205E-1
533 479 -6.281324418150427
533 494 -3.3961373419369173E-1
533 495 -1.8612853132942524
533 497 -7.671066703615418E-1
533 498 1.1251726297820546
533 499 2.0173129301426873
533 500 1.154158941755011E-1
533 521 -6.281682867646131E-2
533 522 -2.0809595658663693
533 523 3.9884685305721285E-1
533 528 -7.773207360730636E-1
533 529 -6.009897551127534
533 530 -2.5146660956501905
533 531 -2.4711738432334623E-3
533 532 -7.917210554673261E-1
533 533 2.23101037609721E1
533 534 7.675586896065243E-1
533 541 5.412151993937896E-1
533 542 -3.58677675771596
533 543 2.158662684694796
533 544 1.4724318936227359
533 545 4.6658903133239044E-1
533 546 1.256373031757233
533 548 -8.71939961367759E-1
533 549 -3.6159852563486394
533 550 -7.439949226300715E-1
534 313 5.860307603663176E-1
534 314 -7.020834514988095E-1
534 315 2.2145185784616452
534 477 -1.861285313294252
534 479 1.1541589417550084E-1
534 494 8.559997796276925E-1
534 495 3.318247133983832E-1
534 497 4.4017463400832924E-1
534 498 -4.9619123790420705E-1
534 499 -1.8359994187713877E-1
534 500 -2.8245367536220547
534 521 -8.711674886299805E-1
534 522 3.9884685305721324E-1
534 523 -7.896713089945358
534 528 -6.686210293344217E-1
534 529 -2.5146660956501914
534 530 -8.209580174844342
534 531 1.125172629782055
534 532 1.4564614922450496
534 533 7.675586896065243E-1
534 534 2.559416085512679E1
534 541 -6.430156992392535E-1
534 542 2.158662684694797
534 543 -4.842198773238557
534 544 -2.3840292394100255
534 545 1.2563730317572348
534 546 -1.3035109472334363
534 548 1.4117667322434309
534 549 -7.439949226300723E-1
534 550 -2.5677731701988638
535 252 -5.787196506522939E-1
535 253 9.056393914604033E-1
535 254 -1.1443222292091868
535 266 -5.923358783132891
535 267 1.8581889040434558
535 268 3.7023247013477407
535 271 -9.454108338302536E-1
535 272 7.975898818227498E-1
535 273 8.14215703827562E-2
535 285 -1.6480814823246583
535 286 -1.9094610097120301
535 287 5.745644744483311E-1
535 339 -2.3149797830965912
535 340 -9.30319840607915E-1
535 341 -1.9042627856069148
535 514 -3.6346940629871587
535 515 -8.351734780671811E-1
535 516 -2.125195844772185
535 519 -4.234536526882643E-2
535 520 1.3611308123162418
535 524 1.423098710436725
535 525 -1.7004216480557255
535 526 1.7126887751217805
535 535 2.6057747095804764E1
535 536 -7.3738031775128E-1
535 537 1.864682563032366
535 538 -2.255714969108362
535 539 -8.179815318480201E-1
535 540 4.484076840940049E-2
535 548 -3.3183047275991915
535 549 1.0034409815823264
535 550 -1.1519575506808635
535 552 -6.819236148241262
535 553 1.0047478548169753
535 554 -1.8437666212843218
535 555 1.889821788110958E-1
536 252 9.056393914604031E-1
536 253 3.272052892763232E-1
536 254 1.1289060597238398
536 266 1.8581889040434563
536 267 -3.5061292397610155
536 268 -2.0178194265267115
536 271 7.975898818227496E-1
536 272 -5.34220928456544
536 273 1.1501515003642948E-1
536 285 -1.9094610097120304
536 286 -1.0165132626323412
536 287 -9.371492408239124E-2
536 339 -9.303198406079152E-1
536 340 -2.911532670136701
536 341 -3.796076555160584
536 514 -8.351734780671818E-1
536 515 -1.1123943892854775
536 516 -5.947266068668117E-1
536 519 1.3611308123162418
536 520 -2.7598963038363875
536 524 -1.700421648055725
536 525 2.3838306573646326
536 526 1.624233131600266
536 535 -7.3738031775128E-1
536 536 2.6442619083159425E1
536 537 5.165562074221828E-1
536 538 -8.179815318480191E-1
536 539 -6.173262843170111
536 540 -7.258897055417243E-1
536 548 1.0034409815823262
536 549 -4.60288301896864
536 550 3.741370477864642
536 552 1.0047478548169748
536 553 -1.728834017444268
536 554 2.210449287065651E-1
536 555 -1.1889873717570332E-1
537 252 -2.4871847479679232E-1
537 253 5.850557762292455E-1
537 254 1.4643435588915432
537 266 3.7023247013477407
537 267 -2.017819426526711
537 268 -5.7443824660891405
537 271 1.4494237956789613E-1
537 272 -9.857385333403094E-1
537 273 -1.0986524099243884
537 285 -2.615154704470813E-1
537 286 -7.9986464060252E-1
537 287 6.913420462486979E-1
537 339 -1.904262785606916
537 340 -3.7960765551605835
537 341 -7.488542148143763
537 514 -1.2283069458164095
537 515 -2.2732329918431676E-1
537 516 -1.8471935958402466
537 519 -1.7219243442052534E-1
537 520 7.636979551565252E-1
537 524 1.7126887751217805
537 525 1.6242331316002645
537 526 2.4180998856867912
537 535 1.864682563032366
537 536 5.165562074221828E-1
537 537 2.7297879952303635E1
537 538 4.01983625563996E-1
537 539 1.0744362780142147E-1
537 540 -1.9222764612318437
537 548 -1.1519575506808635
537 549 3.7413704778646437
537 550 -1.0659922924948576E1
537 552 -2.859668382865193
537 553 4.8846527874015744E-1
537 554 -3.251668595242895
537 555 1.409731582901862E-1
538 464 -1.3739364134137457
538 465 -2.605832135897776
538 466 1.3620690715401949
538 467 3.131919184429402E-1
538 478 -1.9262725334050712
538 496 2.1928708610928878
538 514 -2.2932971249820513
538 515 1.334393658971319
538 516 -1.096827812554312
538 517 -5.548891683480965
538 518 -1.7812817030000647
538 519 -1.0017798733735752E1
538 520 -5.036045252657548E-1
538 524 -5.468210547563889
538 525 2.3203661773471573
538 526 2.822182669029169
538 527 -1.396537226688379E-1
538 535 -2.255714969108362
538 536 -8.179815318480191E-1
538 537 4.01983625563996E-1
538 538 2.856174968491709E1
538 539 -3.8861435176753756E-1
538 540 -1.750854350575745
538 547 1.6445885015411548
538 548 -1.6348373275153782
538 549 -1.6510080536996972
538 550 -1.1267902096583473
538 555 2.3302904530596997
538 581 1.4024865600359258
538 582 -2.304765451400225
539 464 -2.5069414421953513
539 465 1.362069071540195
539 466 -8.576324770556456
539 467 -1.6270341944785967
539 478 -1.0510664860658514
539 496 2.8310331496432566
539 514 1.3343936589713192
539 515 -1.462921741618454
539 516 9.502210425326304E-1
539 517 -1.373936413413745
539 518 -8.577128624769444E-1
539 519 -5.03604525265755E-1
539 520 -4.436577308351746
539 524 2.3203661773471564
539 525 -4.096962470633692
539 526 -2.2529880404243405
539 527 -1.9262725334050719
539 535 -8.179815318480201E-1
539 536 -6.173262843170111
539 537 1.0744362780142147E-1
539 538 -3.8861435176753756E-1
539 539 2.8713955810902295E1
539 540 1.6733211507995325
539 547 2.0567484068866912
539 548 -1.6510080536996976
539 549 -2.4666471551973284
539 550 -2.523288265166447
539 555 -2.1126246640779234E-1
539 581 1.6445885015411559
539 582 1.9102668581772804
540 464 -4.41046195805372E-1
540 465 7.509668034866358E-2
540 466 -7.937008611354498E-1
540 467 -2.7482810689056496
540 478 2.831033149643255
540 496 -3.1759303444919746
540 514 -2.836532596490093E-1
540 515 3.6320450413487626E-1
540 516 -2.889005022071981E-1
540 517 -1.0074721791738956
540 518 -2.580321023336929
540 519 1.3385444715771024
540 520 -4.0912594681612235E-2
540 524 2.8221826690291674
540 525 -2.2529880404243383
540 526 -3.885325642018853
540 527 2.1928708610928886
540 535 4.484076840940049E-2
540 536 -7.258897055417243E-1
540 537 -1.9222764612318437
540 538 -1.750854350575745
540 539 1.6733211507995325
540 540 2.4086687359407687E1
540 547 1.910266858177281
540 548 -1.126790209658347
540 549 -2.523288265166447
540 550 -5.8285545290847605
540 555 -4.776774256983997
540 581 -2.3047654514002263
540 582 1.1196764688535186
541 259 -7.1879801704178
541 260 7.227611439664142E-1
541 261 7.630540839068555E-1
541 313 -8.347956227719182
541 314 4.9577029022447927E-1
541 315 -2.1636779009590494
541 339 3.055720802393649
541 340 -1.2862473346421548
541 341 3.434867643242413E-1
541 521 -2.066642230839622
541 522 2.144176906679957E-1
541 523 2.4836557922155694E-1
541 532 -2.209267518459018
541 533 5.412151993937896E-1
541 534 -6.430156992392535E-1
541 541 2.3053042949914975E1
541 542 -2.0501910714717537
541 543 1.81557654971759
541 548 -6.296917604873001
541 549 1.36227408186123
541 550 -3.637893769719412E-1
542 259 1.0769278106348705
542 260 -8.267489734601748
542 261 1.3253496757270564
542 313 8.707702902279104E-1
542 314 -9.229231493322995
542 315 -1.6132521562253486
542 339 -1.2862473346421546
542 340 2.9921598829303577
542 341 7.293756335529007E-2
542 521 -1.6058230933543538E-1
542 522 -3.609071347995252
542 523 -2.2343873807288137
542 532 1.870485327253344E-1
542 533 -3.58677675771596
542 534 2.158662684694797
542 541 -2.0501910714717537
542 542 2.6093660576829564E1
542 543 3.679383269173393E-1
542 548 1.362274081861229
542 549 -4.393251126123967
542 550 -7.724871374032005E-2
543 259 2.4222075060200116E-1
543 260 1.3253496757270562
543 261 -1.5028474246081323E1
543 313 -1.6428445675927064
543 314 -1.6132521562253466
543 315 -1.627099784899812E1
543 339 3.4348676432424163E-1
543 340 7.293756335528948E-2
543 341 7.078693908771602
543 521 -2.7246775414478447E-1
543 522 -2.2343873807288146
543 523 -4.619774063998324
543 532 -1.2218236593440135E-1
543 533 2.158662684694796
543 534 -4.842198773238557
543 541 1.81557654971759
543 542 3.679383269173393E-1
543 543 4.240408061336195E1
543 548 -3.6378937697194086E-1
543 549 -7.724871374031889E-2
543 550 -8.721329589817218
544 329 -6.42847581535029E-1
544 330 -1.2673664231737778
544 331 -1.332725384623875E-1
544 479 -1.8426055375523815
544 480 -2.606144258074867
544 497 -5.548891683454181
544 498 1.7812817030396502
544 499 -1.5713224458182123E-1
544 500 -2.180473260314665
544 503 1.3622823168256313
544 504 -3.131334493545418E-1
544 528 -4.733921126067688
544 529 2.113727665205566
544 530 6.395040364834884E-1
544 531 -1.3739364134184953
544 532 -2.887231048493631
544 533 1.4724318936227359
544 534 -2.3840292394100255
544 544 2.8322539590528976E1
544 545 -4.3315450684423873E-1
544 546 1.7315224139798753
544 547 1.5393359503257544
544 548 -3.4436056685280914
544 549 -1.1317727981357248
544 550 8.846114847284512E-1
544 565 -9.743429539810318
544 566 -4.3894214685507116E-1
544 567 -2.330777817817748
544 581 1.440663560016654
544 582 2.304766667127903
545 329 -1.2673664231737785
545 330 -3.0674202774141666
545 331 -7.540905264000153E-1
545 479 -1.0048036302550685
545 480 1.3622823168256302
545 497 -1.373936413418495
545 498 8.577128624810747E-1
545 499 -1.8426055375523815
545 500 -2.7696186511299494
545 503 -8.577207885226935
545 504 1.6270402950080334
545 528 2.113727665205566
545 529 -6.117772068510664
545 530 1.0347545038558859E-1
545 531 -2.506941442199999
545 532 1.4724318936227374
545 533 4.6658903133239044E-1
545 534 1.2563730317572348
545 544 -4.3315450684423873E-1
545 545 2.865456690413848E1
545 546 -1.8774307253399463
545 547 2.14167045214054
545 548 -1.1317727981357273
545 549 -5.720656671968959
545 550 3.2557206084081107
545 565 -4.3894214685507005E-1
545 566 -4.2680244120356186
545 567 2.0717038726948325E-1
545 581 1.5393359503257562
545 582 -1.9063527324396148
546 329 2.2387031869220753E-1
546 330 7.924280694313157E-2
546 331 -1.8244062832236246E-1
546 479 -2.769618651129949
546 480 -7.503821126026428E-2
546 497 1.0074721792134815
546 498 -2.5803210233777523
546 499 -2.1804732603146637
546 500 -3.2475086007017873
546 503 7.937069616648869E-1
546 504 -2.7486436786671997
546 528 -1.7367051642181425E-1
546 529 6.904919887833435E-1
546 530 -2.901015568861465
546 531 4.410461958095023E-1
546 532 -2.384029239410026
546 533 1.256373031757233
546 534 -1.3035109472334363
546 544 1.7315224139798753
546 545 -1.8774307253399463
546 546 2.425648135871374E1
546 547 -1.906352732439614
546 548 8.846114847284516E-1
546 549 3.255720608408109
546 550 -7.801354507293826
546 565 -1.339031836335151
546 566 3.6820515543301915E-2
546 567 -4.644453395614409
546 581 2.3047666671279043
546 582 1.152766991358501
547 465 -9.96220304361958E-1
547 466 1.4146456814864916E-1
547 467 -1.8537442242595046
547 471 -5.829956722231521E-1
547 472 -4.236655128871773
547 473 4.3784971544933626E-1
547 474 -1.5136860868207431
547 475 -1.9308050317877745
547 476 -2.3105283120042293
547 477 -9.79939980801136E-1
547 478 1.139467268133459
547 479 1.231748582140913
547 480 -9.958061100023783E-1
547 481 -2.5082427730101093
547 491 -5.830125442479557E-1
547 492 -3.4740677010124807
547 493 -4.3808168090538824E-1
547 494 -5.380060537893577E-1
547 495 -2.069593430797405E-5
547 496 2.0791453123689022E-1
547 499 4.158826583206844E-2
547 500 -2.0834934358661006E-1
547 503 1.4207800337056847E-1
547 504 1.8526224188209546
547 505 -1.5138192447978394
547 506 -1.928267766919819
547 507 2.309929875615701
547 519 -7.710929172002257E-1
547 520 -5.9101182610975
547 527 8.173556670004868E-2
547 538 1.6445885015411548
547 539 2.0567484068866912
547 540 1.910266858177281
547 544 1.5393359503257544
547 545 2.14167045214054
547 546 -1.906352732439614
547 547 7.010266687272633E1
547 548 6.657425897041678
547 549 -2.4814297664342806E1
547 550 -3.0887541077622593E-2
547 552 -7.124850044882658E-1
547 553 -3.15154908005704E-1
547 554 3.17978359599572
547 555 2.6525984737311665
547 562 -8.249820058237249E-1
547 563 -1.6147843354240493E-1
547 564 -3.1801038137652395
547 565 -7.707845277983076E-1
547 566 -5.6005438412210955
547 567 -2.56925016569512
547 573 9.279570734412493E-1
547 574 -2.3046508918860065
547 575 1.3766674379649295
547 576 -5.5517110035480544E-2
547 577 -2.5032181647618095
547 578 3.059801187267552
547 581 -5.28342289775038
547 582 -3.167693334793675E-2
547 583 -3.8035639569765127
547 584 -5.407084823597167
547 585 -6.922868686150781E-3
547 590 2.1212665612838664
547 591 -3.4075159160792348
547 592 -9.286097417671381E-1
547 595 6.002057419438209E-1
547 596 -2.7889208122885636
547 597 -2.208545263775577
547 602 2.1200680174825894
547 603 -4.167880542602311
547 604 9.332207394799243E-1
547 605 5.999841127947955E-1
547 606 -2.7814556723197517
547 607 2.2051868285389498
547 609 9.41684336859475E-1
547 610 -2.2276042802559335
547 611 -1.4224601028830575
547 612 -5.5892384486531485E-2
547 613 -3.0654480660990817
547 639 1.7254467955563086
547 640 4.920584408562214E-1
547 641 3.5139823948172035E-2
548 259 -3.229172143319463E-1
548 260 1.0108356301234163
548 261 1.7296605832460016E-1
548 266 1.10777353878208
548 267 1.1567346571791783
548 268 -1.780157964380952
548 313 6.10280001290596E-1
548 314 1.9925176443068988
548 315 1.799057851506762
548 329 -3.440261092218521
548 330 1.9490487898686137E-1
548 331 -8.910992824430232E-3
548 339 -7.717578768916834
548 340 -2.090524062908551
548 341 -1.2833186246262585E-1
548 477 -8.08572200827828E-1
548 478 -1.5343240578051267
548 479 -1.5249214255550467
548 494 -1.0824591043900547
548 495 -3.5841402293276076E-11
548 496 -9.457560914197397E-1
548 499 1.7671989966648647
548 500 9.382112172727282E-1
548 519 1.1620338497939022
548 520 7.526108406461302E-1
548 521 -4.349033224009278
548 522 -7.839135858824701E-17
548 523 3.810953015549042E-16
548 524 -4.691685725742352
548 525 2.3478198644737142E-1
548 526 -3.2916864529533454
548 527 1.3693869161970114
548 528 1.8091361600462448
548 529 4.78854489414819E-1
548 530 2.212282040926092
548 532 -6.639454024573265
548 533 -8.71939961367759E-1
548 534 1.4117667322434309
548 535 -3.3183047275991915
548 536 1.0034409815823262
548 537 -1.1519575506808635
548 538 -1.6348373275153782
548 539 -1.6510080536996976
548 540 -1.126790209658347
548 541 -6.296917604873001
548 542 1.362274081861229
548 543 -3.6378937697194086E-1
548 544 -3.4436056685280914
548 545 -1.1317727981357273
548 546 8.846114847284516E-1
548 547 6.657425897041678
548 548 5.9066530785061296E1
548 549 -3.5993380323777364
548 550 1.4217425632516387
548 552 -3.1440913668474972
548 553 -6.109314889231556E-1
548 554 3.3613378663179763
548 555 1.137555109732976
548 562 -3.541544961802869
548 563 -6.257922631331453E-1
548 564 -3.469605738350226
548 565 9.46926161517166E-1
548 566 7.901858312166244E-1
548 567 -1.1557715450447785
548 581 -1.4475645015771951E1
548 582 1.3398342646046502E-2
548 583 -3.7409305822329326
548 584 -1.1854425740727572
548 585 6.982851783238822E-2
549 259 1.0108356301234165
549 260 6.29347890743561E-1
549 261 3.6728410356927726E-2
549 266 1.1567346571791788
549 267 1.082949823327633
549 268 1.9282350800532697
549 313 1.9925176443069001
549 314 -2.6124776232437824E-1
549 315 -1.2871856526711112
549 329 1.9490487898686232E-1
549 330 -4.935359212391033
549 331 -4.5777849632667795
549 339 -2.090524062908553
549 340 -2.2086514095351315E1
549 341 1.3696654952632503E-2
549 477 -1.0883312921672699
549 478 -3.5854389976256795E-1
549 479 -3.1138368436772623E-1
549 494 -8.085722008278277E-1
549 495 -1.40163350213898E-11
549 496 -1.6296350885774205
549 499 -1.5249214255550458
549 500 1.5939710292396243
549 519 7.526108406461308E-1
549 520 3.155008728294037E-1
549 521 -7.351599032960729E-17
549 522 -1.7396132896037113
549 523 -9.851440458211154E-16
549 524 2.3478198644737233E-1
549 525 -2.4626772855078713
549 526 -2.0259621350564366E-1
549 527 -1.5343240578051276
549 528 4.78854489414818E-1
549 529 3.9270488331517885
549 530 1.2492162837460762E-1
549 532 -8.719399613677596E-1
549 533 -3.6159852563486394
549 534 -7.439949226300723E-1
549 535 1.0034409815823264
549 536 -4.60288301896864
549 537 3.7413704778646437
549 538 -1.6510080536996972
549 539 -2.4666471551973284
549 540 -2.523288265166447
549 541 1.36227408186123
549 542 -4.393251126123967
549 543 -7.724871374031889E-2
549 544 -1.1317727981357248
549 545 -5.720656671968959
549 546 3.255720608408109
549 547 -2.4814297664342806E1
549 548 -3.5993380323777364
549 549 7.338413337528165E1
549 550 3.479551284593114E-1
549 552 -6.109314889231572E-1
549 553 -8.889010425384718E-1
549 554 9.41569247778438E-1
549 555 -2.589019199476149
549 562 -6.257922631331471E-1
549 563 -1.2729092616782094
549 564 -9.751802538856665E-1
549 565 7.90185831216623E-1
549 566 2.1327966453202035E-2
549 567 2.633920381850845
549 581 6.657425897041676
549 582 -3.0887541077621372E-2
549 583 -1.1854425740727563
549 584 1.658892956855646
549 585 1.8732166672836524E-2
550 259 1.7296605832460013E-1
550 260 3.672841035692781E-2
550 261 2.781962082232267
550 266 -1.7801579643809529
550 267 1.9282350800532697
550 268 1.811851210729579
550 313 1.7990578515067623
550 314 -1.2871856526711098
550 315 3.8380298839831557
550 329 -8.91099282442867E-3
550 330 -4.577784963266778
550 331 -1.044602995222861E1
550 339 -1.2833186246262598E-1
550 340 1.369665495263045E-2
550 341 -8.147763170092162
550 477 -1.4014278279023447E-11
550 478 -1.6296350885774216
550 479 1.5939710292396247
550 494 -3.5842485963059874E-11
550 495 -6.202258278921124E-1
550 496 1.7312328261972922
550 499 9.38211217272727E-1
550 500 1.9050828438247116
550 519 1.1375551097329772
550 520 -2.58901919947615
550 521 1.0952575104973553E-15
550 522 -1.3179833555850028E-15
550 523 -1.7396132896037104
550 524 -3.291686452953345
550 525 -2.0259621350564394E-1
550 526 -2.62042742829099
550 527 -9.457560914197396E-1
550 528 2.2122820409260924
550 529 1.2492162837460632E-1
550 530 1.1358061471136618
550 532 1.411766732243433
550 533 -7.439949226300715E-1
550 534 -2.5677731701988638
550 535 -1.1519575506808635
550 536 3.741370477864642
550 537 -1.0659922924948576E1
550 538 -1.1267902096583473
550 539 -2.523288265166447
550 540 -5.8285545290847605
550 541 -3.637893769719412E-1
550 542 -7.724871374032005E-2
550 543 -8.721329589817218
550 544 8.846114847284512E-1
550 545 3.2557206084081107
550 546 -7.801354507293826
550 547 -3.0887541077622593E-2
550 548 1.4217425632516387
550 549 3.479551284593114E-1
550 550 6.501717735716005E1
550 552 3.3613378663179745
550 553 9.41569247778439E-1
550 554 -3.6745625738356065
550 555 -2.350121766583767
550 562 -3.469605738350226
550 563 -9.751802538856652E-1
550 564 -3.863005486333804
550 565 -1.1557715450447783
550 566 2.633920381850846
550 567 -2.5934455284615696
550 581 1.3398342646046557E-2
550 582 -9.480320382595751
550 583 6.982851783238825E-2
550 584 1.8732166672836104E-2
550 585 2.8933077760206043
551 11 5.021837096343654E-1
551 30 -1.3496076108838615
551 31 -1.289052786349151
551 42 1.512184437809588
551 43 -2.810292581228391
551 278 -1.9211581288179687
551 279 1.429668685320734E-1
551 280 5.079221124028371E-2
551 285 1.666932375270905
551 286 -2.56303297601023
551 287 -6.316127178878655E-1
551 291 9.238567848252046E-1
551 292 -4.088728696574253
551 293 4.107914373966076E-1
551 300 -3.0674689408594982E-2
551 301 -2.698860252197463
551 302 -3.26016892664402
551 551 2.18197011053656E1
551 552 -2.016596413637181
551 553 -1.887065181305681
551 554 -1.5934680881893204E-1
551 568 1.12319695231212
551 569 -3.8345283476827585E-1
551 583 3.1311467995079584E-2
551 584 -3.278135418383643
551 585 3.3278470613157634
551 608 -3.14397838878208
552 31 -1.8839170642465004
552 280 1.5824398552745755E-1
552 285 -4.267200645259708
552 286 -6.103362685496774E-1
552 287 -2.0811937467234523E-1
552 339 2.798155064063672
552 340 1.948576024907526
552 341 1.4304744367738116
552 519 -6.0490959118678145
552 520 -2.952056717428719
552 535 -6.819236148241262
552 536 1.0047478548169748
552 537 -2.859668382865193
552 547 -7.124850044882658E-1
552 548 -3.1440913668474972
552 549 -6.109314889231572E-1
552 550 3.3613378663179745
552 551 -2.016596413637181
552 552 3.319408129958057E1
552 553 1.323016353944619
552 554 5.140344477179994
552 555 -2.2677596002337364
552 568 -3.5950398260318464
552 569 4.8512565066431246E-1
552 581 3.2284033941988772
552 582 8.722151126746821E-1
552 583 -1.0067018115206137E1
552 584 -6.229466820320428E-1
552 585 -5.865467539915979
552 608 9.163310054906474E-1
552 609 -3.395040680142345
552 610 2.332681335899277
552 611 -2.4672663145097962E-1
553 31 -2.016596413637182
553 280 5.913969231534489E-1
553 285 -6.103362685496752E-1
553 286 -1.0204968284189922E1
553 287 7.527246382237769E-1
553 339 1.948576024907526
553 340 1.6912077609850233
553 341 -2.813381035756607
553 519 -2.95205671742872
553 520 -5.127199153231904
553 535 1.0047478548169753
553 536 -1.728834017444268
553 537 4.8846527874015744E-1
553 547 -3.15154908005704E-1
553 548 -6.109314889231556E-1
553 549 -8.889010425384718E-1
553 550 9.41569247778439E-1
553 551 -1.887065181305681
553 552 1.323016353944619
553 553 3.284301841111218E1
553 554 4.9482066011098563E-1
553 555 -2.057833707183921
553 568 9.163310054906468E-1
553 569 -3.8906154587537556E-1
553 581 -7.124850044882653E-1
553 582 3.1797835959957186
553 583 -6.229466820320446E-1
553 584 -7.678623211650538
553 585 -1.3583435410098046
553 608 -3.3939143815577832E-3
553 609 2.3326813358992773
553 610 -6.700086459349162
553 611 1.698594858231811E-1
554 31 -5.917346347546251E-1
554 280 1.0500000058401115E-1
554 285 5.013464385706534E-2
554 286 -3.2692549006205296E-1
554 287 -4.59959142478784
554 339 1.430474436773813
554 340 -2.8133810357566067
554 341 1.6639746609115056
554 519 -1.447016302394605
554 520 -1.2340921114145313
554 535 -1.8437666212843218
554 536 2.210449287065651E-1
554 537 -3.251668595242895
554 547 3.17978359599572
554 548 3.3613378663179763
554 549 9.41569247778438E-1
554 550 -3.6745625738356065
554 551 -1.5934680881893204E-1
554 552 5.140344477179994
554 553 4.9482066011098563E-1
554 554 3.202961427241222E1
554 555 -3.9572493180082953
554 568 -5.938716657042309E-1
554 569 2.2664439738245445E-1
554 581 8.72215112674679E-1
554 582 2.763069086055959E-1
554 583 -5.865467539915979
554 584 -1.3583435410098024
554 585 -1.614674734127057E1
554 608 -1.3315301335893448E-1
554 609 -5.126497727497663E-1
554 610 1.1880235678291515
554 611 -2.6717209867505787
555 465 5.324898504546758E-1
555 466 1.1600333749027574
555 467 1.1533608436327161E-1
555 481 7.474359078032564E-1
555 519 5.016840848038527E-1
555 520 -2.9667073515007575E-1
555 535 1.889821788110958E-1
555 536 -1.1889873717570332E-1
555 537 1.409731582901862E-1
555 538 2.3302904530596997
555 539 -2.1126246640779234E-1
555 540 -4.776774256983997
555 547 2.6525984737311665
555 548 1.137555109732976
555 549 -2.589019199476149
555 550 -2.350121766583767
555 552 -2.2677596002337364
555 553 -2.057833707183921
555 554 -3.9572493180082953
555 555 2.351823028708642E1
555 581 -1.165490371208265
555 582 -1.155933949176685E1
555 609 -1.0656406206386855
555 610 7.13617088956461E-1
555 611 -4.765435157730519E-2
555 612 -1.9211108478161487E-1
555 613 -1.083400344819665
556 501 -1.951200190009153E-1
556 502 -9.185082689633148E-2
556 556 8.721207544511108
556 557 -2.860800795609554E-1
556 558 4.331878202253441E-1
556 559 -6.349108895200006E-1
556 573 -1.1123943892776735
556 574 -8.351734780819112E-1
556 575 2.2732329917327795E-1
556 576 -1.4629217416315612
556 577 1.3343936589903571
556 578 -3.6320450411601657E-1
556 605 -3.2017256558976777
556 606 2.4385001583667004E-1
556 607 -1.540918413296147
556 626 -8.697151769168314E-1
556 627 3.0749920820249965E-2
556 628 -5.136394710422867E-1
556 629 -1.4395396912673644
556 630 -2.926200190034952E-1
556 631 1.8491020959521602
557 501 5.1505698891497E-1
557 502 -3.7303174855332777E-1
557 556 -2.860800795609554E-1
557 557 9.67724558476666
557 558 -3.893777645658289
557 559 1.7987998099996658E-1
557 573 -8.351734780819107E-1
557 574 -3.63469406295982
557 575 1.2283069458329832
557 576 1.3343936589903567
557 577 -2.2932971250319296
557 578 2.8365325960720983E-1
557 605 5.563500158379483E-1
557 606 -3.7092061549285575
557 607 2.5066070108677327
557 626 -2.8175007918102846E-1
557 627 2.754578616700439E-1
557 628 -5.533532185770084E-1
557 629 -6.67620019004377E-1
557 630 -8.305630924313667E-1
557 631 8.015953964807E-1
558 501 -5.258730284355441E-1
558 502 3.87520029589978E-1
558 556 4.331878202253441E-1
558 557 -3.893777645658289
558 558 1.2445795612533905E1
558 559 -4.5925413457824543E-1
558 573 5.947266068551907E-1
558 574 2.125195844777993
558 575 -1.8471935958558179
558 576 -9.502210425108636E-1
558 577 1.0968278125126123
558 578 -2.8890050218691177E-1
558 605 -1.5409184132961462
558 606 1.5393451061197336
558 607 -8.328929583893231
558 626 7.337706735256105E-2
558 627 -3.992658667344112E-1
558 628 8.410187350023199E-1
558 629 1.8491020959521598
558 630 5.754777741790612E-2
558 631 -3.2093106951902417
559 480 -1.182316555611894
559 488 -1.5265376984036255E-1
559 489 2.3437500003116785E-2
559 490 2.4739583333967577E-1
559 501 -1.4099979180800831E-2
559 502 5.067860531484909E-1
559 503 1.2114930787878506
559 504 -3.889003948281095E-1
559 505 -1.8458232849977172
559 506 2.5908250316524034E-1
559 507 -3.784961826695462E-1
559 511 -2.1368055555819727
559 512 4.375000000296986E-2
559 513 -1.0937499999980242
559 556 -6.349108895200006E-1
559 557 1.7987998099996658E-1
559 558 -4.5925413457824543E-1
559 559 8.46192267150926
559 576 -2.506941442160411
559 577 -1.3739364134174967
559 578 4.4104619580773535E-1
559 605 -2.471173796903807E-3
559 606 -3.296066703608465E-1
559 607 1.1251726297780236
560 8 -1.9167707150639757
560 9 -1.3271370952183907
560 10 -1.3388735237643188
560 19 1.5213549122419994
560 20 -2.8686478344015196
560 21 -5.068266062701011E-1
560 281 -1.4018166333694226E-1
560 299 -4.107914373966082E-1
560 300 -6.575422064338686E-2
560 301 -2.8436779610734932
560 302 3.3188961866596287
560 327 1.7305804748371398
560 328 -2.614803112653987
560 338 9.238567848252042E-1
560 560 2.2056348165870972E1
560 561 -1.8446595683565764E-1
560 562 -2.09760150085886
560 563 -2.0023676027339437
560 564 1.572810853811089E-1
560 570 1.1787641523737311
560 571 -3.327140992555871
560 572 3.8438898205549654E-1
560 579 6.344447978906835E-1
560 580 -4.088728696574255
560 583 6.444363605246782E-2
560 584 -2.9838448706595138
560 585 -3.252745388147609
561 8 1.4018166333694304E-1
561 9 5.023806573884972E-1
561 10 9.756360372367961E-2
561 19 2.856938771146448
561 20 -7.409248446975804E-1
561 21 -3.9653092835580734
561 281 2.0111690594953785E-1
561 299 -2.527542176707685E-1
561 300 9.027776229069762E-1
561 301 3.3188961866596296
561 302 -7.126205340312488
561 327 -2.9506622441218076
561 328 9.381636375318474E-1
561 338 1.4844412037709E-1
561 560 -1.8446595683565764E-1
561 561 2.2376273829162493E1
561 562 -1.5728108539351965E-1
561 563 -5.912003261624323E-1
561 564 -1.113504341623972E-2
561 570 -1.5317860087589452E-1
561 571 -5.618921783111086E-1
561 572 1.1789967078546765E-1
561 579 -3.8969457372589957
561 580 5.717882125744116E-1
561 583 -8.847838510999142E-1
561 584 -3.2527453881476074
561 585 -7.442940783680934
562 10 -2.002367602770824
562 327 -4.346097968948153
562 328 -6.251297671840603E-1
562 329 -6.62753781661837
562 330 1.020424658270369
562 331 2.861210614383866
562 339 2.854626790458858
562 340 2.0038217991896534
562 341 -1.444224445485934
562 547 -8.249820058237249E-1
562 548 -3.541544961802869
562 549 -6.257922631331471E-1
562 550 -3.469605738350226
562 560 -2.09760150085886
562 561 -1.5728108539351965E-1
562 562 3.306971425535957E1
562 563 1.2580410211830668
562 564 -4.769835892451575
562 565 -5.873106066734541
562 566 -2.897709598655926
562 567 2.265113964146976
562 570 -3.8276558281814532
562 571 9.611328652764539E-1
562 572 -4.914746147974325E-1
562 573 -3.4527114426353247
562 574 2.3847506006754786
562 575 2.6488538305828596E-1
562 579 2.2634522925092518E-1
562 581 3.2945048273568216
562 582 -8.987017638032919E-1
562 583 -9.547824185483714
562 584 -5.56955808939303E-1
562 585 5.613568349441928
563 10 -2.09760150085886
563 327 -6.25129767184059E-1
563 328 -1.0409260733574188E1
563 329 1.0204246582703693
563 330 -1.694726459283396
563 331 -4.8201078155907634E-1
563 339 2.0038217991896516
563 340 1.929755392323936
563 341 2.8099772181030565
563 547 -1.6147843354240493E-1
563 548 -6.257922631331453E-1
563 549 -1.2729092616782094
563 550 -9.751802538856652E-1
563 560 -2.0023676027339437
563 561 -5.912003261624323E-1
563 562 1.2580410211830668
563 563 3.298708328464024E1
563 564 -4.1060565143527583E-1
563 565 -2.8977095986559256
563 566 -5.027868013869964
563 567 2.0536330987017366
563 570 9.611328652764517E-1
563 571 -8.065797464918056E-2
563 572 3.8957468374613147E-1
563 573 2.384750600675479
563 574 -6.844566642934945
563 575 -1.612919776344539E-1
563 579 -7.481852818233574E-1
563 581 -8.249820058237236E-1
563 582 -3.180103813765238
563 583 -5.569558089393045E-1
563 584 -7.423003554697951
563 585 1.2953930857145737
564 10 5.912003261586295E-1
564 327 -3.190878927848484E-2
564 328 3.314648464624719E-1
564 329 1.8453088528029933
564 330 -2.145904315254838E-1
564 331 -3.1905737721967347
564 339 -1.4442244454859348
564 340 2.809977218103058
564 341 1.7621459309701302
564 547 -3.1801038137652395
564 548 -3.469605738350226
564 549 -9.751802538856665E-1
564 550 -3.863005486333804
564 560 1.572810853811089E-1
564 561 -1.113504341623972E-2
564 562 -4.769835892451575
564 563 -4.1060565143527583E-1
564 564 3.180269163864112E1
564 565 1.4437178543876517
564 566 1.2322369889527398
564 567 -3.882929562203184
564 570 5.881755134913015E-1
564 571 1.3132066520929975E-1
564 572 8.369397267477635E-2
564 573 5.323057330870075E-1
564 574 -1.1771937392115839
564 575 -2.7274625035429727
564 579 -4.679498646748647
564 581 -8.987017638032893E-1
564 582 3.637732051939341E-1
564 583 5.613568349441929
564 584 1.2953930857145706
564 585 -1.5657699733038383E1
565 329 7.48435533077213E-3
565 330 1.296122341882779
565 331 1.7219243442052556E-1
565 480 -6.665973189731129E-1
565 503 -1.7942021321835186
565 504 -1.1453216683669887E-2
565 544 -9.743429539810318
565 545 -4.3894214685507005E-1
565 546 -1.339031836335151
565 547 -7.707845277983076E-1
565 548 9.46926161517166E-1
565 549 7.90185831216623E-1
565 550 -1.1557715450447783
565 562 -5.873106066734541
565 563 -2.8977095986559256
565 564 1.4437178543876517
565 565 2.573947259761927E1
565 566 1.782666410417528
565 567 -4.397426725314123E-1
565 573 -2.7719232369263587
565 574 1.3287468457917095
565 575 1.8104246041175093E-1
565 576 -1.135410976768592
565 577 7.039169761841836E-1
565 578 2.1652445960634592E-2
565 581 -6.503415975254288
565 582 1.1273940754144482
566 329 1.2961223418827783
566 330 -2.580274627722483
566 331 -7.636979551565248E-1
566 480 -1.7942021321835182
566 503 -6.66597318945483E-1
566 504 -6.382409601146525E-1
566 544 -4.3894214685507116E-1
566 545 -4.2680244120356186
566 546 3.6820515543301915E-2
566 547 -5.6005438412210955
566 548 7.901858312166244E-1
566 549 2.1327966453202035E-2
566 550 2.633920381850846
566 562 -2.897709598655926
566 563 -5.027868013869964
566 564 1.2322369889527398
566 565 1.782666410417528
566 566 2.3555524536385853E1
566 567 1.7321347565061923E-1
566 573 1.3287468457917118
566 574 -1.1902815503363165E-1
566 575 -3.508541327960077E-1
566 576 7.039169761841821E-1
566 577 -5.314516134010784
566 578 2.458518517648023E-1
566 581 -7.707845277983092E-1
566 582 -2.5692501656951237
567 329 -1.8898217881109544E-1
567 330 1.188987371757031E-1
567 331 2.5375838866346045E-1
567 480 -5.328752957848574E-1
567 503 -1.1596630392092613
567 504 1.1536647642130993E-1
567 544 -2.330777817817748
567 545 2.0717038726948325E-1
567 546 -4.644453395614409
567 547 -2.56925016569512
567 548 -1.1557715450447785
567 549 2.633920381850845
567 550 -2.5934455284615696
567 562 2.265113964146976
567 563 2.0536330987017366
567 564 -3.882929562203184
567 565 -4.397426725314123E-1
567 566 1.7321347565061923E-1
567 567 2.330685813773069E1
567 573 1.0636391527445592
567 574 -7.12028746033628E-1
567 575 -5.660654122603684E-2
567 576 1.9200231768390877E-1
567 577 -7.458941297103773E-1
567 578 -1.078968217972612
567 581 1.1273940754144478
567 582 -1.1419579757337644E1
568 11 -4.7007423245944047E-1
568 31 2.4210325098285135E-2
568 42 -3.6301554126514035
568 43 -2.6346679055170767
568 280 1.5632515569019398E-1
568 551 1.12319695231212
568 552 -3.5950398260318464
568 553 9.163310054906468E-1
568 554 -5.938716657042309E-1
568 568 2.5792605705739724E1
568 569 -4.485886207349833E-1
568 583 -5.488578038843614
568 584 1.002828191226309
568 585 3.3231901239834887
568 608 5.083209218105417E-2
568 609 -4.9559792725261245
568 610 -2.4018939675703246
568 611 4.751427857369064E-1
568 635 -2.934767568330694
568 639 2.4612947204867117
568 640 -8.573186495712846E-1
568 641 6.595888754501691E-1
568 722 -4.032618313563621
568 723 4.5964007424579745E-1
568 724 8.969874863090141E-1
568 738 -3.6409723193774126
568 739 -1.252984594216206E-1
568 740 -3.920933003816743
568 763 2.4663506666243786
568 764 -7.776690445437412E-2
569 11 -2.752777647471478
569 31 4.564674264449753E-1
569 42 -1.1089766227396458
569 43 -1.6075238546930617
569 280 2.4025802971491356E-1
569 551 -3.8345283476827585E-1
569 552 4.8512565066431246E-1
569 553 -3.8906154587537556E-1
569 554 2.2664439738245445E-1
569 568 -4.485886207349833E-1
569 569 2.3085374689264803E1
569 583 3.3231901239834882
569 584 -3.0511301603612013
569 585 -9.089237052053706
569 608 9.734594138363657E-1
569 609 1.1823264386574444
569 610 7.879177768249503E-1
569 611 -2.126359258063314
569 635 -5.178618305427103E-1
569 639 6.595888754501692E-1
569 640 3.116815255726417
569 641 -2.4427081831528703
569 722 -1.1033843736630555E-1
569 723 -6.699248340350653E-2
569 724 -2.7110743557289263E-1
569 738 -3.9209330038167436
569 739 -1.2792284986167357E-1
569 740 -5.038542433795651
569 763 7.478912825753614E-1
569 764 -1.831545106252259
570 10 -3.831490913888502E-2
570 19 -3.670681938518986
570 20 -2.693593203566906
570 21 4.6148521459205144E-1
570 560 1.1787641523737311
570 561 -1.5317860087589452E-1
570 562 -3.8276558281814532
570 563 9.611328652764517E-1
570 564 5.881755134913015E-1
570 570 2.5983868027172473E1
570 571 8.637742994625819E-2
570 572 3.876425676652321E-1
570 573 -4.9931681421819905
570 574 -2.4500565396352343
570 575 -4.956884965465001E-1
570 583 -5.197661895607954
570 584 9.19645374275657E-1
570 585 -3.288267253772769
570 636 -2.94307715304822
570 637 2.476664893706424
570 638 6.962489655874035E-2
570 639 2.506924498237686
570 640 -8.39088236673186E-1
570 641 -6.079721295642622E-1
570 731 -4.085612898080456
570 732 4.592681164638822E-1
570 733 -9.191436199096601E-1
570 738 -3.734619760652212
570 739 -9.911485216707888E-2
570 740 3.9573219083617603
571 10 1.1787641523737307
571 19 -2.6935932035669072
571 20 -6.043959537906521
571 21 8.637259746225237E-1
571 560 -3.327140992555871
571 561 -5.618921783111086E-1
571 562 9.611328652764539E-1
571 563 -8.065797464918056E-2
571 564 1.3132066520929975E-1
571 570 8.637742994625819E-2
571 571 2.5639745797675776E1
571 572 -8.82853376789795E-1
571 573 -2.4500565396352347
571 574 -3.7803030036918948
571 575 5.873787653714124E-2
571 583 9.196453742756568E-1
571 584 -4.836845288165145
571 585 3.0044946220652573
571 636 2.476664893706425
571 637 -5.902573743580654
571 638 2.765165039377886E-1
571 639 -8.390882366731862E-1
571 640 -1.175808333860534
571 641 -3.15162180980101
571 731 4.5926811646388055E-1
571 732 -6.757241490009486E-2
571 733 1.756723741864854E-1
571 738 -9.91148521670785E-2
571 739 -4.2488450836588054E-1
571 740 8.589934834341653E-2
572 10 -4.568974405111902E-1
572 19 1.0975114407084945
572 20 1.607739801279152
572 21 -2.768311111100317
572 560 3.8438898205549654E-1
572 561 1.1789967078546765E-1
572 562 -4.914746147974325E-1
572 563 3.8957468374613147E-1
572 564 8.369397267477635E-2
572 570 3.876425676652321E-1
572 571 -8.82853376789795E-1
572 572 2.2993343949265245E1
572 573 -1.2018382130706442
572 574 -7.773420683504666E-1
572 575 -2.1391828951579717
572 583 -3.2882672537727684
572 584 3.0044946220652546
572 585 -8.761530543792423
572 636 5.132487987310321E-1
572 637 -7.257513412556706E-1
572 638 -1.8268588833935258
572 639 -6.079721295642617E-1
572 640 -3.1516218098010103
572 641 -2.427359039003696
572 731 9.072493624977895E-2
572 732 6.547115870749107E-2
572 733 -3.04719380651548E-1
572 738 3.9573219083617595
572 739 8.589934834341548E-2
572 740 -4.966975739626006
573 547 9.279570734412493E-1
573 556 -1.1123943892776735
573 557 -8.351734780819107E-1
573 558 5.947266068551907E-1
573 562 -3.4527114426353247
573 563 2.384750600675479
573 564 5.323057330870075E-1
573 565 -2.7719232369263587
573 566 1.3287468457917118
573 567 1.0636391527445592
573 570 -4.9931681421819905
573 571 -2.4500565396352347
573 572 -1.2018382130706442
573 573 3.274768300644618E1
573 574 -1.1442153841897431
573 575 -1.9129974159482357
573 576 -5.896539760324629
573 577 -1.349371115103117
573 578 1.656462253735316
573 581 -5.3082912441558525
573 582 -4.912546103852464
573 583 4.6194650949732425
573 584 -1.0125987198339113
573 585 3.1134003621935136E-3
573 602 1.7714905149170148
573 603 -1.0171639056230894E-1
573 604 -3.4896601494612983E-1
573 605 -3.1370602943870163E-1
573 606 -1.8969516597930054
573 607 -1.0494161029477365
573 626 3.272052893089363E-1
573 627 9.056393914713716E-1
573 628 -1.1289060597205676
573 629 -3.332277616615002
573 630 2.3326148130612907
573 631 1.568626919859061
573 636 -5.375745440411949
573 637 7.481844610456194E-1
573 638 9.257925367955588E-2
573 639 -6.909086603677894
573 640 1.6219010171250972E-1
573 641 5.043216590162896
574 547 -2.3046508918860065
574 556 -8.351734780819112E-1
574 557 -3.63469406295982
574 558 2.125195844777993
574 562 2.3847506006754786
574 563 -6.844566642934945
574 564 -1.1771937392115839
574 565 1.3287468457917095
574 566 -1.1902815503363165E-1
574 567 -7.12028746033628E-1
574 570 -2.4500565396352343
574 571 -3.7803030036918948
574 572 -7.773420683504666E-1
574 573 -1.1442153841897431
574 574 2.8689708842208475E1
574 575 8.860902089846778E-1
574 576 -1.3493711151031154
574 577 -2.147753633429602
574 578 4.1968733973292616E-1
574 581 9.279570734412476E-1
574 582 1.3766674379649277
574 583 -1.0125987198339093
574 584 9.903284599322464E-1
574 585 3.15346159476462
574 602 -1.0171639056230836E-1
574 603 5.861036892938338E-1
574 604 -2.5869749372644333
574 605 -1.8969516597930058
574 606 -9.850303483339415E-1
574 607 -6.299323944938269E-1
574 626 9.056393914713716E-1
574 627 -5.787196506654362E-1
574 628 1.1443222291659592
574 629 2.3326148130612916
574 630 -5.195564645295286
574 631 -2.4484518620295814
574 636 7.481844610456199E-1
574 637 -9.115741417947479E-1
574 638 -1.1314985398897265E-1
574 639 1.621901017125092E-1
574 640 -3.7642558154092436
574 641 -6.603510540186115E-1
575 547 1.3766674379649295
575 556 2.2732329917327795E-1
575 557 1.2283069458329832
575 558 -1.8471935958558179
575 562 2.6488538305828596E-1
575 563 -1.612919776344539E-1
575 564 -2.7274625035429727
575 565 1.8104246041175093E-1
575 566 -3.508541327960077E-1
575 567 -5.660654122603684E-2
575 570 -4.956884965465001E-1
575 571 5.873787653714124E-2
575 572 -2.1391828951579717
575 573 -1.9129974159482357
575 574 8.860902089846778E-1
575 575 2.982846735438051E1
575 576 8.231289203921694E-1
575 577 6.254448259337614E-2
575 578 -2.090044883263801
575 581 -4.912546103852466
575 582 -7.002185776114352
575 583 3.1134003621924866E-3
575 584 3.1534615947646225
575 585 1.6984399687329894
575 602 -3.489660149461287E-1
575 603 -2.586974937264431
575 604 -2.22712405338583
575 605 -1.049416102947738
575 606 -6.29932394493829E-1
575 607 1.2522684222492608
575 626 -5.850557762299889E-1
575 627 2.4871847474632325E-1
575 628 1.464343559008857
575 629 1.5686269198590614
575 630 -2.4484518620295814
575 631 -3.224665033331791
575 636 1.1933329370514236
575 637 -1.7667066318713848E-1
575 638 -1.0982154220698348
575 639 5.043216590162897
575 640 -6.603510540186132E-1
575 641 -1.1830838600423203E1
576 480 -7.6568448301998515
576 501 -1.3739364134174956
576 502 8.577128624793077E-1
576 503 2.0315570589924947
576 504 -2.2275490389364228E-1
576 505 6.714072760883232E-1
576 506 -1.6136993859503095
576 507 -2.03011384275597
576 547 -5.5517110035480544E-2
576 556 -1.4629217416315612
576 557 1.3343936589903567
576 558 -9.502210425108636E-1
576 559 -2.506941442160411
576 565 -1.135410976768592
576 566 7.039169761841821E-1
576 567 1.9200231768390877E-1
576 573 -5.896539760324629
576 574 -1.3493711151031154
576 575 8.231289203921694E-1
576 576 2.3834912805517373E1
576 577 -1.6463607196036807
576 578 -1.1480954210187342
576 581 -1.782689982068215
576 582 -1.977248124226346E-1
576 605 -4.0649713484524375
576 606 1.9690170499430484
576 607 2.676065922046459
577 480 2.0315570589924956
577 501 -5.548891683364447
577 502 1.7812817029869077
577 503 -3.035408362245115
577 504 2.057434383083454E-1
577 505 -1.6136993859503093
577 506 2.1268007171487016
577 507 -1.5976676609805587
577 547 -2.5032181647618095
577 556 1.3343936589903571
577 557 -2.2932971250319296
577 558 1.0968278125126123
577 559 -1.3739364134174967
577 565 7.039169761841836E-1
577 566 -5.314516134010784
577 567 -7.458941297103773E-1
577 573 -1.349371115103117
577 574 -2.147753633429602
577 575 6.254448259337614E-2
577 576 -1.6463607196036807
577 577 2.3358291673248495E1
577 578 -9.664608495253786E-1
577 581 -5.5517110035481015E-2
577 582 3.059801187267553
577 605 1.9690170499430488
577 606 -4.642007287553508
577 607 -2.8961759834524803
578 480 -1.0560882372367892
578 501 1.0074721791757848
578 502 -2.580321023313607
578 503 4.438386764101436E-1
578 504 -2.683645726791949
578 505 -2.0301138427559704
578 506 -1.5976676609805596
578 507 -2.5467045321644344E-2
578 547 3.059801187267552
578 556 -3.6320450411601657E-1
578 557 2.8365325960720983E-1
578 558 -2.8890050218691177E-1
578 559 4.4104619580773535E-1
578 565 2.1652445960634592E-2
578 566 2.458518517648023E-1
578 567 -1.078968217972612
578 573 1.656462253735316
578 574 4.1968733973292616E-1
578 575 -2.090044883263801
578 576 -1.1480954210187342
578 577 -9.664608495253786E-1
578 578 2.0264697142299983E1
578 581 -1.9772481242263504E-1
578 582 -6.461094384349039
578 605 2.6760659220464604
578 606 -2.8961759834524807
578 607 -5.0562553591004145
579 10 -2.004381083761072
579 299 -3.446366505999398
579 300 3.2380825420423163
579 301 7.708812912280845E-1
579 302 -3.246450633013671
579 303 1.6823048349766345E-1
579 304 3.4908888221562835
579 305 3.4659157172222765E-1
579 327 3.899459410406421
579 328 9.521777817314381E-1
579 329 -5.745644744483307E-1
579 330 9.371492408239157E-2
579 331 6.913420462486987E-1
579 332 -2.4424220873965963E-1
579 333 -3.0102587472856923E-1
579 334 9.554473399226193E-2
579 335 -1.7745208620006087E-2
579 336 5.352254542490804E-1
579 337 -3.90164771631956
579 338 -1.2568086779129581
579 339 -4.8142799722521845
579 340 -1.101315751638143
579 341 -1.4282330810099921E1
579 560 6.344447978906835E-1
579 561 -3.8969457372589957
579 562 2.2634522925092518E-1
579 563 -7.481852818233574E-1
579 564 -4.679498646748647
579 579 3.149564765122447E1
579 580 -1.2293446062175173
579 583 1.3799039605368857
579 584 -3.097461556930374
579 585 8.241140462525379E-1
580 8 9.757439788636062E-1
580 9 -2.3025141744016253E-1
580 10 9.238567848252032E-1
580 281 -1.4797768620571955E-1
580 297 -2.939539803488514
580 298 1.4482099942412057
580 299 6.326890935560436E-2
580 300 -1.726722779777221E-1
580 301 -3.178178589320368
580 302 -2.4396714343904877
580 303 1.726722779777216E-1
580 304 -1.97384157607079
580 305 2.4396714343904877
580 327 -2.9761838032292163
580 328 -4.688110759208966
580 335 1.4032883669276752
580 336 -3.9787188462168055E-2
580 337 -3.769902672845321E-2
580 338 1.7219419702113206
580 365 -4.93091681123859
580 370 -4.633141440722819
580 393 8.908925058899247E-1
580 394 -6.682457970195317E-1
580 560 -4.088728696574255
580 561 5.717882125744116E-1
580 579 -1.2293446062175173
580 580 2.3762956479038117E1
581 465 -3.568505887989546E-1
581 466 -9.962203043619574E-1
581 467 -2.271319991041092
581 471 -2.293253454430068
581 472 -5.829956722231515E-1
581 473 -6.223771338201863E-2
581 474 3.0628529807564375E-1
581 475 -1.513686086820742
581 476 -1.0652485920837185
581 477 -5.380060537893578E-1
581 478 8.173556670004845E-2
581 479 4.15882658320696E-2
581 480 -3.562569677325061E-1
581 481 -5.58923844865333E-2
581 491 -1.9882878975851126
581 492 -5.830125442479548E-1
581 493 6.206373935409559E-2
581 494 -2.6620602587289683
581 495 -1.5521944913410567E-5
581 496 -1.382382587200266
581 499 -3.045936821937458
581 500 1.38260473800877
581 503 -9.958061100023781E-1
581 504 2.2711770156658524
581 505 3.077967431231738E-1
581 506 -1.5138192447978396
581 507 1.0651771518406397
581 519 -6.777439786991739
581 520 -7.710929172002247E-1
581 527 -3.139570824410228
581 538 1.4024865600359258
581 539 1.6445885015411559
581 540 -2.3047654514002263
581 544 1.440663560016654
581 545 1.5393359503257562
581 546 2.3047666671279043
581 547 -5.28342289775038
581 548 -1.4475645015771951E1
581 549 6.657425897041676
581 550 1.3398342646046557E-2
581 552 3.2284033941988772
581 553 -7.124850044882653E-1
581 554 8.72215112674679E-1
581 555 -1.165490371208265
581 562 3.2945048273568216
581 563 -8.249820058237236E-1
581 564 -8.987017638032893E-1
581 565 -6.503415975254288
581 566 -7.707845277983092E-1
581 567 1.1273940754144478
581 573 -5.3082912441558525
581 574 9.279570734412476E-1
581 575 -4.912546103852466
581 576 -1.782689982068215
581 577 -5.5517110035481015E-2
581 578 -1.9772481242263504E-1
581 581 6.191251421278649E1
581 582 5.05405496715752E-2
581 583 -4.579847130730497
581 584 -3.8035639569765127
581 585 2.0512617593006217E-2
581 590 -2.263770105823199
581 591 2.121266561283866
581 592 1.0507892779531018
581 595 5.769923822532963E-2
581 596 6.002057419438207E-1
581 597 5.674296595953364E-1
581 602 -2.5694746201689047
581 603 2.120068017482587
581 604 -1.051968660976962
581 605 6.264049561711371E-2
581 606 5.999841127947967E-1
581 607 -5.646915411019651E-1
581 609 -5.163642778278064
581 610 9.416843368594738E-1
581 611 4.900811435326625
581 612 -1.7896014514821996
581 613 1.9970801589664292E-1
581 639 -6.9569594250878275
581 640 1.7254467955563109
581 641 -1.1495288350905077E-2
582 465 -2.271319991041091
582 466 -1.8537442242595041
582 467 -3.114705735921623
582 471 -6.223771338201761E-2
582 472 4.3784971544933426E-1
582 473 -4.1620079928388
582 474 -1.0652485920837185
582 475 -2.3105283120042293
582 476 3.037341885140127
582 477 -2.0695934308301835E-5
582 478 2.0791453123689024E-1
582 479 -2.0834934358660973E-1
582 480 2.2711770156658524
582 481 -3.065448066099082
582 491 6.20637393540958E-2
582 492 -4.3808168090538874E-1
582 493 -3.857259141765401
582 494 -1.5521944912766907E-5
582 495 -1.450349938577854
582 496 8.22942971891446E-1
582 499 1.3826047380087712
582 500 8.763414464283501E-1
582 503 1.852622418820955
582 504 -3.1122267363441507
582 505 1.0651771518406394
582 506 2.309929875615703
582 507 3.0396137628001174
582 519 -1.1654903712082663
582 520 2.6525984737311683
582 527 -1.3823825872002677
582 538 -2.304765451400225
582 539 1.9102668581772804
582 540 1.1196764688535186
582 544 2.304766667127903
582 545 -1.9063527324396148
582 546 1.152766991358501
582 547 -3.167693334793675E-2
582 548 1.3398342646046502E-2
582 549 -3.0887541077621372E-2
582 550 -9.480320382595751
582 552 8.722151126746821E-1
582 553 3.1797835959957186
582 554 2.763069086055959E-1
582 555 -1.155933949176685E1
582 562 -8.987017638032919E-1
582 563 -3.180103813765238
582 564 3.637732051939341E-1
582 565 1.1273940754144482
582 566 -2.5692501656951237
582 567 -1.1419579757337644E1
582 573 -4.912546103852464
582 574 1.3766674379649277
582 575 -7.002185776114352
582 576 -1.977248124226346E-1
582 577 3.059801187267553
582 578 -6.461094384349039
582 581 5.05405496715752E-2
582 582 6.649625512576762E1
582 583 2.0512617593006155E-2
582 584 -6.9228686861498995E-3
582 585 -1.3058437758102412
582 590 1.0507892779531047
582 591 -9.286097417671397E-1
582 592 -3.3647572140675747E-1
582 595 5.674296595953344E-1
582 596 -2.2085452637755747
582 597 -7.955307173380416E-1
582 602 -1.0519686609769634
582 603 9.332207394799261E-1
582 604 -6.43461809264009E-1
582 605 -5.646915411019652E-1
582 606 2.205186828538949
582 607 -7.910032203209064E-1
582 609 4.900811435326624
582 610 -1.4224601028830577
582 611 -6.920130737245256
582 612 1.9970801589664267E-1
582 613 -6.476533061121602
582 639 -1.149528835090587E-2
582 640 3.513982394817232E-2
582 641 1.7030296140790733
583 10 -3.184319330063112
583 11 2.947863559682969
583 19 -1.0403839402012667
583 20 -1.261509642929656
583 21 -2.9087004126912386
583 22 -1.291825887318508
583 23 -2.1675147440593914E-2
583 31 -3.367235473391788
583 42 -1.2198646518348986
583 43 -1.259617257014896
583 48 -2.616962082048227
583 280 9.127394782876275E-1
583 285 2.3790878440397085
583 286 1.852208888319061
583 287 -1.4001699577275482
583 300 -7.5436369732594475
583 301 -2.520840312915336
583 302 -6.169552388605828E-3
583 327 2.5063881462179793
583 328 1.8374563078067871
583 339 -6.445865040976513
583 340 3.0659363771388817
583 341 1.580507660891883E-2
583 547 -3.8035639569765127
583 548 -3.7409305822329326
583 549 -1.1854425740727563
583 550 6.982851783238825E-2
583 551 3.1311467995079584E-2
583 552 -1.0067018115206137E1
583 553 -6.229466820320446E-1
583 554 -5.865467539915979
583 560 6.444363605246782E-2
583 561 -8.847838510999142E-1
583 562 -9.547824185483714
583 563 -5.569558089393045E-1
583 564 5.613568349441929
583 568 -5.488578038843614
583 569 3.3231901239834882
583 570 -5.197661895607954
583 571 9.196453742756568E-1
583 572 -3.2882672537727684
583 573 4.6194650949732425
583 574 -1.0125987198339093
583 575 3.1134003621924866E-3
583 579 1.3799039605368857
583 581 -4.579847130730497
583 582 2.0512617593006155E-2
583 583 6.737468529346614E1
583 584 -2.758377183875049
583 585 1.6178768592272247E-1
583 608 1.00282819122631
583 609 4.472966736216694
583 610 -9.95219200171928E-1
583 611 -4.854294276902687E-3
583 639 -7.73299368511082
583 640 4.760447543955835
583 641 -2.234211053889723E-2
583 738 -1.0904608184652568E1
583 739 5.059755634039541
583 740 -4.588265039968E-2
584 10 6.444363605246635E-2
584 11 1.131807313533138
584 19 -1.2615096429296555
584 20 1.3553999249820805
584 21 -1.1168298636704117
584 22 -2.6169620820482287
584 23 -2.9606052354248596E-2
584 31 3.131146799508014E-2
584 42 -1.2596172570148962
584 43 1.181908241356673
584 48 3.401045987028681
584 280 3.3278470613157625
584 285 1.852208888319061
584 286 8.282295306964316E-1
584 287 3.0944767298865723
584 300 -2.520840312915336
584 301 -2.3344193073136676E1
584 302 -2.1243153677627538E-2
584 327 1.837456307806788
584 328 1.0583027551816264
584 339 3.065936377138881
584 340 -4.140145689961117
584 341 3.391035673896694E-4
584 547 -5.407084823597167
584 548 -1.1854425740727572
584 549 1.658892956855646
584 550 1.8732166672836104E-2
584 551 -3.278135418383643
584 552 -6.229466820320428E-1
584 553 -7.678623211650538
584 554 -1.3583435410098024
584 560 -2.9838448706595138
584 561 -3.2527453881476074
584 562 -5.56955808939303E-1
584 563 -7.423003554697951
584 564 1.2953930857145706
584 568 1.002828191226309
584 569 -3.0511301603612013
584 570 9.19645374275657E-1
584 571 -4.836845288165145
584 572 3.0044946220652546
584 573 -1.0125987198339113
584 574 9.903284599322464E-1
584 575 3.1534615947646225
584 579 -3.097461556930374
584 581 -3.8035639569765127
584 582 -6.9228686861498995E-3
584 583 -2.758377183875049
584 584 7.408753575071746E1
584 585 6.332063485104294E-3
584 608 -5.12417019851981
584 609 -9.952192001719293E-1
584 610 7.781311573807582E-1
584 611 -3.1580927918450037
584 639 4.760447543955837
584 640 -1.4218454066484401E1
584 641 2.1270998631941235E-2
584 738 5.059755634039542
584 739 -6.9052745688756625
584 740 3.8220637045234714E-2
585 10 -8.847838510999135E-1
585 11 -1.4292873503963857
585 19 -2.908700412691241
585 20 -1.1168298636704117
585 21 -1.3476056831675083
585 22 -2.167514744059315E-2
585 23 3.14533719585045
585 31 9.12739478287627E-1
585 42 2.947863559682971
585 43 1.1318073135331375
585 48 -2.9606052354248763E-2
585 280 -7.786454939317255
585 285 -1.4001699577275482
585 286 3.0944767298865745
585 287 7.326998047699605E-1
585 300 -6.169552388605978E-3
585 301 -2.1243153677626338E-2
585 302 -6.296052703906359
585 327 1.3799039605368857
585 328 -3.0974615569303756
585 339 1.580507660891837E-2
585 340 3.391035673895853E-4
585 341 -1.4453337690530306
585 547 -6.922868686150781E-3
585 548 6.982851783238822E-2
585 549 1.8732166672836524E-2
585 550 2.8933077760206043
585 551 3.3278470613157634
585 552 -5.865467539915979
585 553 -1.3583435410098046
585 554 -1.614674734127057E1
585 560 -3.252745388147609
585 561 -7.442940783680934
585 562 5.613568349441928
585 563 1.2953930857145737
585 564 -1.5657699733038383E1
585 568 3.3231901239834887
585 569 -9.089237052053706
585 570 -3.288267253772769
585 571 3.0044946220652573
585 572 -8.761530543792423
585 573 3.1134003621935136E-3
585 574 3.15346159476462
585 575 1.6984399687329894
585 579 8.241140462525379E-1
585 581 2.0512617593006217E-2
585 582 -1.3058437758102412
585 583 1.6178768592272247E-1
585 584 6.332063485104294E-3
585 585 7.422616959682017E1
585 608 -3.051130160361203
585 609 -4.854294276904366E-3
585 610 -3.158092791845003
585 611 1.600100781259478
585 639 -2.2342110538898258E-2
585 640 2.1270998631941332E-2
585 641 -5.281295494402223
585 738 -4.588265039967998E-2
585 739 3.8220637045234804E-2
585 740 -3.130139999817186
586 468 -6.353401243119075E-1
586 469 -1.9423342527176332E-1
586 470 9.188346754059823E-2
586 481 1.3364829077980822
586 586 8.72906363760836
586 587 -2.922224822756724E-1
586 588 -4.3383723048089456E-1
586 589 -8.703512993259361E-1
586 593 -1.4391615964345816
586 594 -2.917334252813368E-1
586 595 -3.208856955065108
586 596 2.431111877341297E-1
586 597 1.5426320445678081
586 609 -1.1081652618650628
586 610 -8.358488240312365E-1
586 611 -2.2751286197431575E-1
586 612 -1.4671884006057643
586 613 3.637823522516982E-1
586 614 3.4444061327797065E-2
586 615 5.142106815788945E-1
586 621 -1.8511584534837886
587 468 1.807665747275624E-1
587 469 5.147309986099614E-1
587 470 3.7291447423341983E-1
587 481 -2.3040500009280307
587 586 -2.922224822756724E-1
587 587 9.682063972784043
587 588 3.8960311563347947
587 589 -2.78055938671233E-1
587 593 -6.667334252806635E-1
587 594 -8.265392879425725E-1
587 595 5.556111877331603E-1
587 596 -3.7193755454744486
587 597 -2.51276391175594
587 609 -8.358488240312358E-1
587 610 -3.623422016773647
587 611 -1.2281058429783063
587 612 1.3364829077980822
587 613 -2.851696787451404E-1
587 614 2.7659187972469546E-1
587 615 5.513009183237608E-1
587 621 -7.942071154125885E-1
588 468 4.594173376065498E-1
588 469 5.252866569290109E-1
588 470 3.8745413122586403E-1
588 481 -1.1006897176784147
588 586 -4.3383723048089456E-1
588 587 3.8960311563347947
588 588 1.246103208637474E1
588 589 -7.34586687361437E-2
588 593 -1.85115845348379
588 594 -5.015949638133643E-2
588 595 1.5426320445678092
588 596 -1.5455020069817245
588 597 -8.344645101320044
588 609 -5.950467320402671E-1
588 610 -2.124525644705149
588 611 -1.8429946316605073
588 612 9.514517025667366E-1
588 613 -2.922308429183335E-1
588 614 3.995590524828192E-1
588 615 8.422850929955004E-1
588 621 -3.2109007346972187
589 586 -8.703512993259361E-1
589 587 -2.78055938671233E-1
589 588 -7.34586687361437E-2
589 589 1.0226139497812992E1
589 593 -4.998850350085997
589 594 1.542804646155504E-1
589 609 3.236549569336764E-1
589 610 9.040599946376073E-1
589 611 5.85484239634387E-1
589 614 2.5845053797597656E-1
589 615 2.0665238105305903E-1
589 619 -2.19156884431882
589 620 -1.7811161388892183
589 621 1.4248929111108455
589 635 -2.1323307767401465
589 741 -3.5669318427577057E-1
589 742 1.328781415369179E-1
589 743 2.714081735963155E-1
589 753 -1.9285058076950962E-1
589 763 -9.787626193253095E-1
589 764 -6.338628977692451E-1
590 471 -3.9059274083682183E-1
590 472 -2.2221710356856036E-1
590 473 6.959945207298643E-1
590 547 2.1212665612838664
590 581 -2.263770105823199
590 582 1.0507892779531047
590 590 5.2702209840945486E1
590 591 -2.052107657066592E-1
590 592 3.8640473216000997
590 593 -7.912489601961719
590 594 1.247724444281333
590 595 -1.8741904915690824E1
590 596 -1.3412898907589499
590 597 -6.0887373774492195
590 598 3.125000000097133E-1
590 599 4.3750000000011846E-1
590 602 -2.135581680340066E1
590 603 -5.409592999466106E-3
590 604 -4.281025165525318E-2
590 609 1.7733860179852268
590 610 -1.0445731881354278E-1
590 611 3.53932939902292E-1
590 616 -1.3382171494309734
590 617 6.687456559862195E-1
590 618 -1.5859727156242238
590 621 2.9608003044375653
590 639 -7.183402560514046E-1
590 640 -1.9404019897040392
590 641 -1.3122106865641785
590 658 -1.4538690476765816
590 659 -6.562500000003194E-1
590 692 -3.005952380585304E-1
590 693 -2.083333333397641E-1
591 471 -9.721710356788625E-2
591 472 1.2397267959216345
591 473 -4.604418738035593E-1
591 547 -3.4075159160792348
591 581 2.121266561283866
591 582 -9.286097417671397E-1
591 590 -2.052107657066592E-1
591 591 5.0387250095182836E1
591 592 -1.4840111713139614
591 593 1.1227244442806572
591 594 -7.03122291414057
591 595 -1.153789890757979
591 596 -1.5931573886864083E1
591 597 -1.4334513258748653
591 598 9.672619048147005E-1
591 599 -1.0577380952025204
591 602 -5.409592999466197E-3
591 603 -2.128763915015271E1
591 604 3.0535651727963824
591 609 -1.0445731881354231E-1
591 610 5.881822033843875E-1
591 611 2.5850236831432833
591 616 4.812456559852498E-1
591 617 3.003792675644967E-1
591 618 -2.3853747623509264E-1
591 621 -1.4571393495166551
591 639 -1.9404019897040385
591 640 -6.245507805071615E-1
591 641 -1.3477074412478007
591 658 -6.562500000003187E-1
591 659 -3.175297619107072
591 692 4.375000000001179E-1
591 693 7.440476190047076E-1
592 471 9.043278540617737E-1
592 472 -4.604418738162912E-1
592 473 2.481870283845358
592 547 -9.286097417671381E-1
592 581 1.0507892779531018
592 582 -3.3647572140675747E-1
592 590 3.8640473216000997
592 591 -1.4840111713139614
592 592 9.206151420681137E1
592 593 2.960800304437565
592 594 -2.201186968547906
592 595 -6.088737377449219
592 596 -2.400713230649082
592 597 -2.8750551209037415E1
592 598 -1.3226190477606705
592 599 1.4880952380486903
592 602 -4.281025165525353E-2
592 603 3.0535651727963824
592 604 -5.3458565325990556E1
592 609 3.539329399022926E-1
592 610 2.585023683143283
592 611 -2.219676445174379
592 616 -1.898472715622158
592 617 -2.3853747621666935E-1
592 618 1.652667823259629
592 621 -1.061166472050796E1
592 639 -1.3122106865641752
592 640 -1.347707441247801
592 641 8.915953939638248E-1
592 658 6.25000000007645E-1
592 659 1.934523809570493
592 692 -4.166666666716732E-1
592 693 -3.880952380024481E-1
593 586 -1.4391615964345816
593 587 -6.667334252806635E-1
593 588 -1.85115845348379
593 589 -4.998850350085997
593 590 -7.912489601961719
593 591 1.1227244442806572
593 592 2.960800304437565
593 593 3.097191533682886E1
593 594 -2.8528702585710812
593 595 -9.817252020983456E-1
593 596 1.8699931033636402E-1
593 597 2.203760063569929E-1
593 609 -3.337201649128705
593 610 2.3312693328693155
593 611 -1.5672451355876322
593 614 4.042804646146811E-1
593 615 1.4248929111108444
593 616 -1.1411407470235751E1
593 617 7.233196107919475E-1
593 618 -4.182879945887427
593 619 -1.2071589288308375
593 620 2.0355613015608298E-1
593 621 1.1462881819629942
593 635 -8.036262689543006E-1
593 639 1.1197057309013747
593 640 -6.505607446458568E-1
593 641 2.0450524961040356E-1
593 753 1.1114758184058549
593 763 -1.709904552801219
593 764 1.4408647513239647
594 586 -2.917334252813368E-1
594 587 -8.265392879425725E-1
594 588 -5.015949638133643E-2
594 589 1.542804646155504E-1
594 590 1.247724444281333
594 591 -7.03122291414057
594 592 -2.201186968547906
594 593 -2.8528702585710812
594 594 2.651366634590648E1
594 595 6.869993103363627E-1
594 596 1.5403694035901512
594 597 1.0334656996350395
594 609 2.3312693328693155
594 610 -5.2132406938795866
594 611 2.462065665853424
594 614 -5.536107259033272
594 615 -1.690519937736005
594 616 4.7331961079107776E-1
594 617 -8.72126781004482
594 618 4.3623798926919505E-1
594 619 6.114758184058549E-1
594 620 7.789053150064661E-1
594 621 1.1643173164531082
594 635 -1.7099045528012196
594 639 -6.50560744645857E-1
594 640 -1.9798081656878537
594 641 -2.915237828159117
594 753 6.718967973415163E-1
594 763 5.822535838905277E-1
594 764 9.821122446071322E-1
595 468 -1.995026213702872E-3
595 469 -7.669342771365506E-1
595 470 -1.1255724770747766
595 471 -2.5454657904362095
595 472 -4.433063811095318E-1
595 473 1.7068141558368737
595 474 -4.10850070835213
595 475 1.0553668950031843
595 476 -1.92193411256904E-1
595 481 1.9696188753955277
595 547 6.002057419438209E-1
595 581 5.769923822532963E-2
595 582 5.674296595953344E-1
595 586 -3.208856955065108
595 587 5.556111877331603E-1
595 588 1.5426320445678092
595 590 -1.8741904915690824E1
595 591 -1.153789890757979
595 592 -6.088737377449219
595 593 -9.817252020983456E-1
595 594 6.869993103363627E-1
595 595 3.390476985713706E1
595 596 -6.078679680348943E-1
595 597 5.000554810688295
595 609 -3.0354482611737676E-1
595 610 -1.8959034933731003
595 611 1.0475731899228262
595 612 -4.070475671388692
595 613 -2.678876601187231
595 621 2.2037600635699134E-1
596 468 -3.294342771368871E-1
596 469 1.0967170869446567
596 470 2.30904833391551E-1
596 471 -3.808063811091946E-1
596 472 -2.7264086775244682
596 473 3.9653337802982525E-1
596 474 1.5553668950031845
596 475 -1.3071041067216613
596 476 -4.8629927271038986E-1
596 481 -4.651626519547658
596 547 -2.7889208122885636
596 581 6.002057419438207E-1
596 582 -2.2085452637755747
596 586 2.431111877341297E-1
596 587 -3.7193755454744486
596 588 -1.5455020069817245
596 590 -1.3412898907589499
596 591 -1.5931573886864083E1
596 592 -2.400713230649082
596 593 1.8699931033636402E-1
596 594 1.5403694035901512
596 595 -6.078679680348943E-1
596 596 2.9456552261600798E1
596 597 1.4484920419081906
596 609 -1.8959034933730994
596 610 -9.686292037147239E-1
596 611 6.269911699773689E-1
596 612 1.9696188753955264
596 613 2.9046726511747942
596 621 1.03346569963504
597 468 -1.1255724770747766
597 469 -4.387380237400415E-1
597 470 -4.9589054107224334E-1
597 471 1.706814155836872
597 472 1.0661762351614197
597 473 -7.1044012331541815
597 474 -1.921934112569033E-1
597 475 -4.8629927271039036E-1
597 476 1.0145304671375763
597 481 2.904672651174794
597 547 -2.208545263775577
597 581 5.674296595953364E-1
597 582 -7.955307173380416E-1
597 586 1.5426320445678081
597 587 -2.51276391175594
597 588 -8.344645101320044
597 590 -6.0887373774492195
597 591 -1.4334513258748653
597 592 -2.8750551209037415E1
597 593 2.203760063569929E-1
597 594 1.0334656996350395
597 595 5.000554810688295
597 596 1.4484920419081906
597 597 4.575971114782974E1
597 609 1.047573189922826
597 610 6.269911699773693E-1
597 611 1.2649599631760267
597 612 -2.6788766011872305
597 613 -5.068966901901135
597 621 2.52078412567971
598 471 -1.0416666666988282E-1
598 472 6.696428571183207E-1
598 473 -1.3404761904635927
598 491 1.0361107454382286
598 492 -2.42452869039343
598 493 -9.441881656377573
598 590 3.125000000097133E-1
598 591 9.672619048147005E-1
598 592 -1.3226190477606705
598 598 3.980238728740913E1
598 599 1.4204545455723827E-1
598 602 -2.130681818178929
598 603 -2.617694805127886
598 604 -1.160922619012519E1
598 651 -3.070981482542641E-1
598 652 7.164777458626536E-1
598 653 6.179900643804673
598 654 2.604166666569876E-1
598 655 -5.268216312768438E-1
598 656 3.427163010980988E-1
598 657 -5.663662843231524E-1
598 658 1.4424597776252461
598 659 -2.4362762625699927
598 671 4.144423758037725
598 678 7.693009109294848E-1
598 679 -6.622846675380056E-1
598 680 -2.8339235113952417
598 681 2.0888892545630013
598 682 8.977997374835893E-1
598 683 4.477017175421194
598 684 5.208333333790399E-2
598 685 4.727232142830096
598 692 -1.6382575757013578
598 693 -1.2827380941027194E-1
598 711 -9.943181818223016E-1
598 712 -2.794377055960941E1
599 590 4.3750000000011846E-1
599 591 -1.0577380952025204
599 592 1.4880952380486903
599 598 1.4204545455723827E-1
599 599 2.5368176406841062E1
599 600 -3.2472966269431893
599 601 3.380257936521171
599 602 4.7727272727079173E-1
599 603 -3.054599567277297
599 604 -2.5162337663047336
599 616 -5.833333333339511E-1
599 617 -3.351587301700986
599 618 1.7857142857755457
599 622 -5.833333333269184E-1
599 623 -2.40912698397914
599 624 -2.6785714285312388
599 654 -1.490714285663779
599 658 1.9886363637618332E-1
599 659 -2.0335497832247507E-1
599 671 1.8054924241986385
599 684 -4.0833333334684496E-1
599 685 -9.672619047242489E-1
599 686 4.3749999997944944E-1
599 687 -1.4962797622253524E-1
599 688 -6.138392857615047E-1
599 692 -6.1363636382293835E-2
599 693 -1.8682359306891427
599 694 -2.083333330925881E-2
599 695 -5.022321429181975E-1
599 707 4.425940169916487E-11
599 708 1.3365079365446455
599 709 1.4285714285568614
599 711 -5.606060606032468E-1
599 712 8.049242424103513E-1
599 713 3.3333333330479437E-1
599 714 -1.6926388888793596E1
599 715 2.827380952341681
599 716 3.33333333326917E-1
599 717 6.69642857238699E-1
600 599 -3.2472966269431893
600 600 2.8443347859774395E1
600 601 -1.9662698412599855E1
600 616 4.3749999999973943E-1
600 617 -1.0577380951727764
600 618 1.6369047618551824
600 622 5.833333333269186E-1
600 623 1.7698412681739584E-1
600 624 -2.4553571428983925
600 686 -6.406250000014464E-1
600 687 -3.859561011827394E-1
600 688 -1.5950520833087196
600 689 2.1874999999936096E-1
600 690 2.075297618895004
600 691 -8.556547619525886E-1
600 692 -2.0833333309258975E-2
600 693 -5.022321429182013E-1
600 694 1.0565476188723608E-1
600 695 -3.3163265304432614
600 696 4.3749999998543426E-1
600 704 3.928571428650751E-1
600 705 -4.548129251528649
600 706 3.5076530612166303
600 713 -1.964285714290161E-1
600 714 2.187457482960883
600 715 1.3711734694686406
600 716 -3.33333333329746E-1
600 717 2.4553571426905347
600 718 1.0898351665566963E-11
600 745 -7.343749999942938E-1
600 746 -2.8916108631466044
600 756 -2.500000000109018E-1
600 757 5.309523810011603E-1
600 770 1.9298735119214503
600 776 -4.2929315474040655
600 777 9.486607142316517E-1
600 787 2.6723214285290418
600 788 -6.696428570866699E-1
600 792 -2.4553571427762577
601 599 3.380257936521171
601 600 -1.9662698412599855E1
601 601 2.7381443098114943E1
601 622 4.010416666729629E-1
601 623 -2.5376426091620714
601 624 5.254836309120039E-1
601 692 3.3333333332691817E-1
601 693 6.696428572387018E-1
601 694 -3.333333333297488E-1
601 695 2.4553571426905334
601 696 1.9642857142812678E-1
601 700 -2.187500000006397E-1
601 701 2.0752976192002617
601 702 8.55654761856943E-1
601 703 6.406249999985535E-1
601 704 -3.9285714284921125E-1
601 705 -4.548129251872779
601 706 -3.50765306123239
601 713 -4.3749999999749684E-1
601 714 -4.292931547872354
601 715 -9.486607143721363E-1
601 716 5.610119047377887E-1
601 717 -1.5943877548790304
601 718 -3.124999999826799E-1
601 756 -4.37500000004574E-1
601 757 -1.057738095119479
601 776 2.1874574830254767
601 777 -1.3711734693068687
601 780 -3.8595610119821044E-1
601 781 1.5950520833579613
601 787 -2.5393601190371053
601 788 5.022321428166763E-1
601 792 8.184523809176044E-1
602 471 8.668665504246498E-1
602 472 2.4984158816768526E-1
602 473 -2.5756447494992094
602 491 -1.5579608185630935
602 492 -3.4713789765466585E-1
602 493 1.7754835621405851
602 547 2.1200680174825894
602 573 1.7714905149170148
602 574 -1.0171639056230836E-1
602 575 -3.489660149461287E-1
602 581 -2.5694746201689047
602 582 -1.0519686609769634
602 590 -2.135581680340066E1
602 591 -5.409592999466197E-3
602 592 -4.281025165525353E-2
602 598 -2.130681818178929
602 599 4.7727272727079173E-1
602 602 5.783126219720109E1
602 603 -2.3527384608837432E-1
602 604 -2.9669227510869134
602 605 -1.8742726325078056E1
602 606 -1.347010796816198
602 607 6.075529002426112
602 616 3.8416189659277417E-1
602 617 -2.5000000000936756E-1
602 618 2.975056345017074
602 622 -1.944366396898761
602 623 6.062456559595322E-1
602 624 -1.5713752960000362
602 629 -7.906767850901429
602 630 1.2441626581472407
602 631 -2.966765901569656
602 639 -1.0065993506086766
602 640 -1.9417239410818565
602 641 1.308706685841276
602 658 -5.160443722799068
602 659 -4.772727272707913E-1
602 671 -5.17045454547153E-1
602 692 -2.48836580103253
602 693 1.8181818181808602
602 711 7.732345779235863E-1
602 712 2.9592803029407266E-1
602 713 1.1055059523920658
602 714 5.250000000023427E-1
602 715 -5.937499999868897E-1
603 471 2.4984158816768506E-1
603 472 2.1671663757147948
603 473 -3.898096051854219E-1
603 491 -2.2213789765554748E-1
603 492 -3.9922911315708803E-1
603 493 1.0737486430596257
603 547 -4.167880542602311
603 573 -1.0171639056230894E-1
603 574 5.861036892938338E-1
603 575 -2.586974937264431
603 581 2.120068017482587
603 582 9.332207394799261E-1
603 590 -5.409592999466106E-3
603 591 -2.128763915015271E1
603 592 3.0535651727963824
603 598 -2.617694805127886
603 599 -3.054599567277297
603 602 -2.3527384608837432E-1
603 603 5.491996679867235E1
603 604 -2.3151865968809746
603 605 -1.1595107968174752
603 606 -1.593396668077828E1
603 607 1.4398223462259074
603 616 -2.500000000093675E-1
603 617 9.604047420806094E-1
603 618 -5.856019427671355E-1
603 622 4.187456559608101E-1
603 623 1.0699275577810011E-1
603 624 9.915501333131771E-1
603 629 1.1191626581481227
603 630 -7.0251075333102415
603 631 1.4563880990652154
603 639 -1.9417239410818556
603 640 -1.3549241662018092
603 641 1.3424949395134629
603 658 -4.772727272707913E-1
603 659 -6.022781385127832
603 671 -3.6572646101063594E-1
603 692 4.7727272727079184E-1
603 693 -2.516233766304734
603 711 -5.170454545471529E-1
603 712 -3.4327651514729435E-1
603 713 5.250000000023431E-1
603 714 8.712202380785186E-1
603 715 1.0639880952241794
604 471 -2.5756447494992085
604 472 -3.8980960518542207E-1
604 473 8.668665507714814E-1
604 491 1.1504835621391607
604 492 1.0737486430593928
604 493 2.397537920787713
604 547 9.332207394799243E-1
604 573 -3.4896601494612983E-1
604 574 -2.5869749372644333
604 575 -2.22712405338583
604 581 -1.051968660976962
604 582 -6.43461809264009E-1
604 590 -4.281025165525318E-2
604 591 3.0535651727963824
604 592 -5.3458565325990556E1
604 598 -1.160922619012519E1
604 599 -2.5162337663047336
604 602 -2.9669227510869134
604 603 -2.3151865968809746
604 604 1.0118252969130783E2
604 605 6.075529002426114
604 606 2.407084250973909
604 607 -2.8711518098517203E1
604 616 2.9750563450170735
604 617 -5.856019427671353E-1
604 618 3.8416189599410094E-1
604 622 -1.0505419626646342
604 623 9.915501333134891E-1
604 624 1.6932819688372804
604 629 -2.966765901569657
604 630 2.20043571812801
604 631 -1.061621920421563E1
604 639 1.3087066858412748
604 640 1.3424949395134629
604 641 6.055238565536752E-1
604 658 -2.130681818178929
604 659 -2.617694805127883
604 671 -1.3105384198956083
604 692 1.8181818181808604
604 693 -6.084226190880273
604 711 -2.2490530304132872E-1
604 712 2.749888392830778
604 713 3.12500000145336E-2
604 714 3.199404761616194E-1
604 715 3.4705505952958253
605 491 -2.5456242497621564
605 492 -4.4358360180419343E-1
605 493 -1.706814155794142
605 501 -7.67106670361289E-1
605 502 1.1251726297780238
605 505 -4.106454303829136
605 506 1.0539371214304427
605 507 1.9064554243977497E-1
605 547 5.999841127947955E-1
605 556 -3.2017256558976777
605 557 5.563500158379483E-1
605 558 -1.5409184132961462
605 559 -2.471173796903807E-3
605 573 -3.1370602943870163E-1
605 574 -1.8969516597930058
605 575 -1.049416102947738
605 576 -4.0649713484524375
605 577 1.9690170499430488
605 578 2.6760659220464604
605 581 6.264049561711371E-2
605 582 -5.646915411019652E-1
605 602 -1.8742726325078056E1
605 603 -1.1595107968174752
605 604 6.075529002426114
605 605 3.389209422350329E1
605 606 -5.924854287603869E-1
605 607 -4.985441681641298
605 629 -9.77055632865337E-1
605 630 6.803498575301143E-1
605 631 -2.2013120190908414E-1
606 491 -3.8108360180463585E-1
606 492 -2.726804825000611
606 493 -3.972405738768845E-1
606 501 1.0951353495873917
606 502 -2.2946822317692878E-1
606 505 1.5539371214304434
606 506 -1.3036329417248773
606 507 4.8656876645411073E-1
606 547 -2.7814556723197517
606 556 2.4385001583667004E-1
606 557 -3.7092061549285575
606 558 1.5393451061197336
606 559 -3.296066703608465E-1
606 573 -1.8969516597930054
606 574 -9.850303483339415E-1
606 575 -6.29932394493829E-1
606 576 1.9690170499430484
606 577 -4.642007287553508
606 578 -2.8961759834524807
606 581 5.999841127947967E-1
606 582 2.205186828538949
606 602 -1.347010796816198
606 603 -1.593396668077828E1
606 604 2.407084250973909
606 605 -5.924854287603869E-1
606 606 2.943936272353539E1
606 607 -1.4510225200898472
606 629 1.803498575301135E-1
606 630 1.5476058375167447
606 631 -1.0343452569967329
607 491 -1.7068141557941439
607 492 -1.0668834310299316
607 493 -7.104559693295775
607 501 4.401746339761189E-1
607 502 -4.9619123779642826E-1
607 505 1.9064554243977588E-1
607 506 4.865687664541102E-1
607 507 1.0164176582536066
607 547 2.2051868285389498
607 556 -1.540918413296147
607 557 2.5066070108677327
607 558 -8.328929583893231
607 559 1.1251726297780236
607 573 -1.0494161029477365
607 574 -6.299323944938269E-1
607 575 1.2522684222492608
607 576 2.676065922046459
607 577 -2.8961759834524803
607 578 -5.0562553591004145
607 581 -5.646915411019651E-1
607 582 -7.910032203209064E-1
607 602 6.075529002426112
607 603 1.4398223462259074
607 604 -2.8711518098517203E1
607 605 -4.985441681641298
607 606 -1.4510225200898472
607 607 4.5698208176351926E1
607 629 -2.2013120190908275E-1
607 630 -1.0343452569967335
607 631 2.5215629360691625
608 11 -8.595437518727908E-1
608 31 1.1231969523121197
608 42 -2.6346679055170785
608 43 -5.992583354503465
608 280 5.664048944788428E-1
608 551 -3.14397838878208
608 552 9.163310054906474E-1
608 553 -3.3939143815577832E-3
608 554 -1.3315301335893448E-1
608 568 5.083209218105417E-2
608 569 9.734594138363657E-1
608 583 1.00282819122631
608 584 -5.12417019851981
608 585 -3.051130160361203
608 608 2.5490569367263383E1
608 609 -2.401893967570324
608 610 -3.7517949157773027
608 611 -5.166804976654571E-2
608 635 2.4663506666243786
608 639 -8.57318649571285E-1
608 640 -1.0719017404559064
608 641 3.1168152557264177
608 722 4.5964007424579884E-1
608 723 -3.994960241829548E-2
608 724 -1.772643860591287E-1
608 738 -1.2529845942162113E-1
608 739 -4.601182813831921E-1
608 740 -1.2792284986167338E-1
608 763 -5.9026789710417695
608 764 -2.5599735276135005E-1
609 481 -1.344596375866411
609 519 -2.757888776290942
609 520 1.3236155922428945
609 547 9.41684336859475E-1
609 552 -3.395040680142345
609 553 2.3326813358992773
609 554 -5.126497727497663E-1
609 555 -1.0656406206386855
609 568 -4.9559792725261245
609 569 1.1823264386574444
609 581 -5.163642778278064
609 582 4.900811435326624
609 583 4.472966736216694
609 584 -9.952192001719293E-1
609 585 -4.854294276904366E-3
609 586 -1.1081652618650628
609 587 -8.358488240312358E-1
609 588 -5.950467320402671E-1
609 589 3.236549569336764E-1
609 590 1.7733860179852268
609 591 -1.0445731881354231E-1
609 592 3.539329399022926E-1
609 593 -3.337201649128705
609 594 2.3312693328693155
609 595 -3.0354482611737676E-1
609 596 -1.8959034933730994
609 597 1.047573189922826
609 608 -2.401893967570324
609 609 3.242164131258116E1
609 610 -1.102897791475932
609 611 1.9316342464406657
609 612 -5.875453013390064
609 613 -1.6594663793802733
609 614 9.040599946376059E-1
609 615 1.1283005867285687
609 621 -1.5672451355876307
609 635 -5.352809348912775
609 639 -6.741923417065293
609 640 9.281608183634944E-2
609 641 -5.032827626601771
609 763 7.546902969575567E-1
609 764 -1.0684827570312327E-1
610 481 -2.1393793094335067
610 519 1.3236155922428945
610 520 -1.0493031196067426E-1
610 547 -2.2276042802559335
610 552 2.332681335899277
610 553 -6.700086459349162
610 554 1.1880235678291515
610 555 7.13617088956461E-1
610 568 -2.4018939675703246
610 569 7.879177768249503E-1
610 581 9.416843368594738E-1
610 582 -1.4224601028830577
610 583 -9.95219200171928E-1
610 584 7.781311573807582E-1
610 585 -3.158092791845003
610 586 -8.358488240312365E-1
610 587 -3.623422016773647
610 588 -2.124525644705149
610 589 9.040599946376073E-1
610 590 -1.0445731881354278E-1
610 591 5.881822033843875E-1
610 592 2.585023683143283
610 593 2.3312693328693155
610 594 -5.2132406938795866
610 595 -1.8959034933731003
610 596 -9.686292037147239E-1
610 597 6.269911699773693E-1
610 608 -3.7517949157773027
610 609 -1.102897791475932
610 610 2.8464960722982422E1
610 611 -7.847287746263355E-1
610 612 -1.3445963758664095
610 613 -4.1931979428188015E-1
610 614 -5.935902337633513E-1
610 615 -1.1524621333025828
610 621 2.462065665853423
610 635 7.546902969575551E-1
610 639 9.281608183635022E-2
610 640 -3.6095379675376664
610 641 5.784341879696546E-1
610 763 -8.99058691302012E-1
610 764 1.1951610108971521E-1
611 481 -6.2176937157292556E-2
611 519 -1.831744906899142E-1
611 520 3.529115729184302E-1
611 547 -1.4224601028830575
611 552 -2.4672663145097962E-1
611 553 1.698594858231811E-1
611 554 -2.6717209867505787
611 555 -4.765435157730519E-2
611 568 4.751427857369064E-1
611 569 -2.126359258063314
611 581 4.900811435326625
611 582 -6.920130737245256
611 583 -4.854294276902687E-3
611 584 -3.1580927918450037
611 585 1.600100781259478
611 586 -2.2751286197431575E-1
611 587 -1.2281058429783063
611 588 -1.8429946316605073
611 589 5.85484239634387E-1
611 590 3.53932939902292E-1
611 591 2.5850236831432833
611 592 -2.219676445174379
611 593 -1.5672451355876322
611 594 2.462065665853424
611 595 1.0475731899228262
611 596 6.269911699773689E-1
611 597 1.2649599631760267
611 608 -5.166804976654571E-2
611 609 1.9316342464406657
611 610 -7.847287746263355E-1
611 611 2.970200898904416E1
611 612 -8.261330460371255E-1
611 613 -2.082917491210185
611 614 -2.533524971641013E-1
611 615 1.457574860006061
611 621 -3.2366625448371664
611 635 -1.2061047503450617
611 639 -5.032827626601771
611 640 5.784341879696553E-1
611 641 -1.1789677159295731E1
611 763 1.8529923073530005E-1
611 764 -1.0868509876713033
612 465 -7.647483289804181
612 466 2.0295451032114973
612 467 2.2119705166373038E-1
612 468 -2.50422205906516
612 469 -1.3737023445588128
612 470 -8.576199780089897E-1
612 474 6.749084027737636E-1
612 475 -1.6137283169380756
612 476 2.0299266930482815
612 481 -1.6544656995851237
612 519 -1.1433879906303708
612 520 7.067382350298472E-1
612 547 -5.5892384486531485E-2
612 555 -1.9211108478161487E-1
612 581 -1.7896014514821996
612 582 1.9970801589664267E-1
612 586 -1.4671884006057643
612 587 1.3364829077980822
612 588 9.514517025667366E-1
612 595 -4.070475671388692
612 596 1.9696188753955264
612 597 -2.6788766011872305
612 609 -5.875453013390064
612 610 -1.3445963758664095
612 611 -8.261330460371255E-1
612 612 2.3822903473592667E1
612 613 1.1524572468395695
613 465 1.0545303850068783
613 466 -4.425970794845174E-1
613 467 -2.677664048158401
613 468 -4.409533113374191E-1
613 469 -1.0074323714883238
613 470 -2.5781320041582365
613 474 2.029926693048282
613 475 1.5971746894203578
613 476 -2.055053878885965E-2
613 481 9.64775209196105E-1
613 519 -2.110840113814781E-2
613 520 -2.4665555969231379E-1
613 547 -3.0654480660990817
613 555 -1.083400344819665
613 581 1.9970801589664292E-1
613 582 -6.476533061121602
613 586 3.637823522516982E-1
613 587 -2.851696787451404E-1
613 588 -2.922308429183335E-1
613 595 -2.678876601187231
613 596 2.9046726511747942
613 597 -5.068966901901135
613 609 -1.6594663793802733
613 610 -4.1931979428188015E-1
613 611 -2.082917491210185
613 612 1.1524572468395695
613 613 2.028039523307642E1
614 586 3.4444061327797065E-2
614 587 2.7659187972469546E-1
614 588 3.995590524828192E-1
614 589 2.5845053797597656E-1
614 593 4.042804646146811E-1
614 594 -5.536107259033272
614 609 9.040599946376059E-1
614 610 -5.935902337633513E-1
614 611 -2.533524971641013E-1
614 614 1.0652522800159387E1
614 615 4.303004872161301
614 619 -5.053505807685393E-1
614 620 -6.398262682877643E-1
614 621 -2.583377080608843
614 635 -9.787626193253087E-1
614 741 -1.1712185846221274E-1
614 742 5.327722244588855E-1
614 743 4.4330232479518505E-1
614 753 -1.519997708134474
614 763 -3.8121917034118717
614 764 -1.6693104033785955
615 586 5.142106815788945E-1
615 587 5.513009183237608E-1
615 588 8.422850929955004E-1
615 589 2.0665238105305903E-1
615 593 1.4248929111108444
615 594 -1.690519937736005
615 609 1.1283005867285687
615 610 -1.1524621333025828
615 611 1.457574860006061
615 614 4.303004872161301
615 615 1.768151806485147E1
615 619 -1.7811161388892176
615 620 -5.188690531981219
615 621 -1.272931113826757E1
615 635 -1.2215322480842814
615 741 -2.714081734978678E-1
615 742 4.4955481806082753E-1
615 743 1.2965703185892212
615 753 1.7862611264578454E-1
615 763 -2.6395046501530843
615 764 -3.359946666193465
616 590 -1.3382171494309734
616 591 4.812456559852498E-1
616 592 -1.898472715622158
616 593 -1.1411407470235751E1
616 594 4.7331961079107776E-1
616 599 -5.833333333339511E-1
616 600 4.3749999999973943E-1
616 602 3.8416189659277417E-1
616 603 -2.500000000093675E-1
616 604 2.9750563450170735
616 616 4.988461343004455E1
616 617 1.2990519032821657E-1
616 618 9.056772396010205
616 619 -1.610136984602379E1
616 620 -2.1088952384121495
616 621 -4.182879945887425
616 622 -1.723515403122746E1
616 623 2.500000000093676E-1
616 624 -2.975056345017072
616 635 7.82249588064238
616 639 -8.223769173820047
616 640 -5.796687458659877E-2
616 641 -1.8499490764605033
616 692 -1.5039682540696317
616 693 4.1666666667760327E-1
616 694 -3.005952380273851E-1
616 695 -3.125000000076853E-1
616 745 -1.9767900444446627
616 746 -4.3382864002382643E-1
616 753 -5.193712186968836E-1
616 763 7.252960953697743E-2
616 764 2.314702752837337
616 770 -1.4354448391352252
617 590 6.687456559862195E-1
617 591 3.003792675644967E-1
617 592 -2.3853747621666935E-1
617 593 7.233196107919475E-1
617 594 -8.72126781004482
617 599 -3.351587301700986
617 600 -1.0577380951727764
617 602 -2.5000000000936756E-1
617 603 9.604047420806094E-1
617 604 -5.856019427671353E-1
617 616 1.2990519032821657E-1
617 617 4.398511179455171E1
617 618 -3.4914882877605615
617 619 -7.068712186978523E-1
617 620 -3.2172832052436673E-1
617 621 1.3290951321420357
617 622 2.5000000000936784E-1
617 623 -1.7373196900034994E1
617 624 2.371316228544896
617 635 7.252960953697679E-2
617 639 -5.796687458659855E-2
617 640 -8.330995971855131
617 641 -1.2312553306495806
617 692 -5.833333333339512E-1
617 693 8.928571429202832E-1
617 694 4.3749999999973943E-1
617 695 8.184523809032086E-1
617 745 -6.838286400246959E-1
617 746 6.22067760855011E-2
617 753 -1.0729041224809716E1
617 763 4.255724723336104
617 764 1.540577597278026
617 770 -1.0836871238701367
618 590 -1.5859727156242238
618 591 -2.3853747623509264E-1
618 592 1.652667823259629
618 593 -4.182879945887427
618 594 4.3623798926919505E-1
618 599 1.7857142857755457
618 600 1.6369047618551824
618 602 2.975056345017074
618 603 -5.856019427671355E-1
618 604 3.8416189599410094E-1
618 616 9.056772396010205
618 617 -3.4914882877605615
618 618 7.383799925932676E1
618 619 -2.1088952384121513
618 620 -1.5581704444335585E1
618 621 -1.554819901460994E1
618 622 -2.9750563450170726
618 623 2.3713162285448948
618 624 -4.294984220926112E1
618 635 2.314702752837338
618 639 -1.8499490764605029
618 640 -1.2312553306495797
618 641 -5.713097668881858
618 692 8.333333333422025E-1
618 693 -1.3873015875421721
618 694 -6.250000000056175E-1
618 695 -3.8809523792283623E-1
618 745 -1.8521115057998232
618 746 -1.083687123852556
618 753 -1.1401807014579184
618 763 1.540577597278026
618 764 4.681080628785972
618 770 1.0123305551870427
619 589 -2.19156884431882
619 593 -1.2071589288308375
619 594 6.114758184058549E-1
619 614 -5.053505807685393E-1
619 615 -1.7811161388892176
619 616 -1.610136984602379E1
619 617 -7.068712186978523E-1
619 618 -2.1088952384121513
619 619 3.601987770816517E1
619 620 5.714855494489585
619 621 2.035561301560834E-1
619 635 -1.1580553356762227E1
619 639 6.845271670498138
619 640 8.35985975808683E-1
619 641 1.9075931446120227
619 741 -1.9041773829415167
619 742 4.6678046461319167E-1
619 743 1.4248929111078166
619 745 -8.696199323762986
619 746 -1.7423535170394135
619 750 -1.184121696023137
619 751 -3.885241815906592E-1
619 752 2.0355613016367655E-1
619 753 2.47486389110595
619 763 -1.0460066518372164
619 764 -2.3868284588542696
619 770 -3.177613974373548
620 589 -1.7811161388892183
620 593 2.0355613015608298E-1
620 594 7.789053150064661E-1
620 614 -6.398262682877643E-1
620 615 -5.188690531981219
620 616 -2.1088952384121495
620 617 -3.2172832052436673E-1
620 618 -1.5581704444335585E1
620 619 5.714855494489585
620 620 3.653398513537832E1
620 621 2.0280264998182442
620 635 -2.3868284588542714
620 639 1.9075931446120244
620 640 -1.180707920094819
620 641 4.510255257582261
620 741 1.4248929111078152
620 742 -8.72067556816344E-1
620 743 -5.71009542823851
620 745 -3.177613974373547
620 746 -1.4123663940553806
620 750 2.0355613016367619E-1
620 751 7.789053150355186E-1
620 752 2.0510637326882986
620 753 1.3915544222315053
620 763 1.4773314075051849
620 764 -8.658922168276828
620 770 -9.983918052634992
621 586 -1.8511584534837886
621 587 -7.942071154125885E-1
621 588 -3.2109007346972187
621 589 1.4248929111108455
621 590 2.9608003044375653
621 591 -1.4571393495166551
621 592 -1.061166472050796E1
621 593 1.1462881819629942
621 594 1.1643173164531082
621 595 2.2037600635699134E-1
621 596 1.03346569963504
621 597 2.52078412567971
621 609 -1.5672451355876307
621 610 2.462065665853423
621 611 -3.2366625448371664
621 614 -2.583377080608843
621 615 -1.272931113826757E1
621 616 -4.182879945887425
621 617 1.3290951321420357
621 618 -1.554819901460994E1
621 619 2.035561301560834E-1
621 620 2.0280264998182442
621 621 3.993274371033847E1
621 635 1.4408647513239627
621 639 2.0450524961040165E-1
621 640 -2.9152378281591167
621 641 -1.4594592239306228
621 753 7.789053150064661E-1
621 763 9.821122446071298E-1
621 764 2.31464304101405
622 599 -5.833333333269184E-1
622 600 5.833333333269186E-1
622 601 4.010416666729629E-1
622 602 -1.944366396898761
622 603 4.187456559608101E-1
622 604 -1.0505419626646342
622 616 -1.723515403122746E1
622 617 2.5000000000936784E-1
622 618 -2.9750563450170726
622 622 5.179325375814896E1
622 623 9.18676760059638E-2
622 624 -2.774480736325862
622 629 -1.1425841098025113E1
622 630 4.697589397035464E-1
622 631 4.171111806806834
622 632 -1.595388535073422E1
622 633 -5.252893209179441E-1
622 634 2.0311544987259995
622 636 7.760460541386484
622 637 7.630205300652647E-2
622 638 -2.2759975112667963
622 639 -8.186003385841168
622 640 -6.109803038310585E-2
622 641 1.822479993865633
622 692 -2.4662698411544994
622 693 -1.2500000000082703
622 694 2.3412698399232987E-1
622 695 9.375000000082685E-1
622 713 1.2340029762270652
622 714 -4.3750000000360867E-1
622 715 2.8645833332210036E-1
622 716 -1.3554997519924725
622 717 -3.580729166558887E-1
622 745 3.8416189650487187E-1
622 746 -2.500000000093691E-1
622 756 -2.8389863003860127
622 757 -4.338286400451498E-1
622 770 3.2875563450170677
622 792 -1.8521115058073794
623 599 -2.40912698397914
623 600 1.7698412681739584E-1
623 601 -2.5376426091620714
623 602 6.062456559595322E-1
623 603 1.0699275577810011E-1
623 604 9.915501333134891E-1
623 616 2.500000000093676E-1
623 617 -1.7373196900034994E1
623 618 2.3713162285448948
623 622 9.18676760059638E-2
623 623 4.492226800995862E1
623 624 -3.0048595175578163E-1
623 629 7.197589397022641E-1
623 630 -8.725243107331522
623 631 -1.314635990370905
623 632 -7.127893209166661E-1
623 633 -1.0640561369275789E1
623 634 3.1737956473848583E-1
623 636 7.630205300652673E-2
623 637 4.217056320582679
623 638 -1.5430981398345638
623 639 -6.109803038310685E-2
623 640 -8.306511240683593
623 641 1.2356188767774547
623 692 -5.833333333269184E-1
623 693 -2.6785714285312365
623 694 5.833333333269184E-1
623 695 -2.455357142898393
623 713 -4.375000000036088E-1
623 714 4.7686011911912185E-1
623 715 9.486607142799522E-1
623 716 4.010416666729627E-1
623 717 1.3439360118815806
623 745 -2.5000000000936834E-1
623 746 9.604047419758628E-1
623 756 -6.838286400438662E-1
623 757 -8.68283863764669E-1
623 770 9.768980572368274E-1
623 792 1.0678906661819434E-1
624 599 -2.6785714285312388
624 600 -2.4553571428983925
624 601 5.254836309120039E-1
624 602 -1.5713752960000362
624 603 9.915501333131771E-1
624 604 1.6932819688372804
624 616 -2.975056345017072
624 617 2.371316228544896
624 618 -4.294984220926112E1
624 622 -2.774480736325862
624 623 -3.0048595175578163E-1
624 624 7.610542299140248E1
624 629 4.171111806806833
624 630 -4.2177884753095285E-1
624 631 -1.55294136938216E1
624 632 2.0311544987259986
624 633 1.1358319457083723
624 634 -1.5435146650348777E1
624 636 -2.2759975112667963
624 637 -1.5430981398345631
624 638 4.609166907650334
624 639 1.8224799938656329
624 640 1.2356188767774556
624 641 -5.662639641438968
624 692 -1.2500000000082698
624 693 -5.697817460067382
624 694 9.375000000082687E-1
624 695 1.1746031716153166E-1
624 713 -1.302083333466333E-1
624 714 5.580357143965298E-2
624 715 3.4484002976723582
624 716 1.6276041667951185E-1
624 717 -1.583169022810106
624 745 3.287556345017069
624 746 9.768980572368304E-1
624 756 -1.435444839138645
624 757 1.0678906661853994E-1
624 770 3.841618957911933E-1
624 792 5.001342992327862E-1
625 625 1.1709973998969474E1
625 626 1.2846073056835328E-1
625 627 5.326052252988551E-1
625 628 -4.47801877217934E-1
625 632 4.67884817361474E-1
625 633 -1.7214514806100203
625 634 8.628646172101518E-1
625 636 5.490885839125204E-1
625 637 -3.6131943420422084
625 638 1.5490936884983015
625 719 -4.577801941307733
625 720 2.8177678119549276
625 729 2.022571773878506E-1
625 730 2.0478393381816284E-1
625 758 1.4541775445069544E-1
625 759 -6.238464231475732E-1
625 760 -7.8242351060989455
625 766 -5.756743419284598E-1
625 844 -9.13311212170103E-2
625 845 7.140445270949952E-1
625 846 -4.0890623295587664E-1
626 556 -8.697151769168314E-1
626 557 -2.8175007918102846E-1
626 558 7.337706735256105E-2
626 573 3.272052893089363E-1
626 574 9.056393914713716E-1
626 575 -5.850557762299889E-1
626 625 1.2846073056835328E-1
626 626 1.0221819481069684E1
626 627 2.640175800657375E-1
626 628 -2.047904740616518E-1
626 629 -4.989832283512479
626 630 1.5538481735871673E-1
626 631 -1.4276069941747824
626 632 -2.1999114462827234
626 633 -1.9423102169819406E-1
626 634 1.784508742716623
626 636 -2.1317205419071934
626 637 -9.775214185849566E-1
626 638 6.314925760931203E-1
626 719 -2.719251416958812E-1
626 758 -3.578453217593938E-1
627 556 3.0749920820249965E-2
627 557 2.754578616700439E-1
627 558 -3.992658667344112E-1
627 573 9.056393914713716E-1
627 574 -5.787196506654362E-1
627 575 2.4871847474632325E-1
627 625 5.326052252988551E-1
627 626 2.640175800657375E-1
627 627 1.064878827368383E1
627 628 -4.300670743726661
627 629 4.0538481735999854E-1
627 630 -5.523110720072976
627 631 2.5741741410346166
627 632 -5.067310216994717E-1
627 633 -1.5333134005827938
627 634 6.513299427474095E-1
627 636 -9.77521418584957E-1
627 637 -3.8217075893315253
627 638 1.6707693175709735
627 719 -4.4505526563825093E-1
627 758 -1.2153926943292898E-1
628 556 -5.136394710422867E-1
628 557 -5.533532185770084E-1
628 558 8.410187350023199E-1
628 573 -1.1289060597205676
628 574 1.1443222291659592
628 575 1.464343559008857
628 625 -4.47801877217934E-1
628 626 -2.047904740616518E-1
628 627 -4.300670743726661
628 628 1.7670137709314563E1
628 629 -1.4276069941747815
628 630 1.681316998194664
628 631 -1.2712210049075079E1
628 632 1.7845087427166226
628 633 -1.671224382224779E-1
628 634 -5.202741940339764
628 636 1.2185091144879687
628 637 2.6433090503834573
628 638 -3.3591152698665883
628 719 1.29856725595569
628 758 2.719251417946965E-1
629 556 -1.4395396912673644
629 557 -6.67620019004377E-1
629 558 1.8491020959521598
629 573 -3.332277616615002
629 574 2.3326148130612916
629 575 1.5686269198590614
629 602 -7.906767850901429
629 603 1.1191626581481227
629 604 -2.966765901569657
629 605 -9.77055632865337E-1
629 606 1.803498575301135E-1
629 607 -2.2013120190908275E-1
629 622 -1.1425841098025113E1
629 623 7.197589397022641E-1
629 624 4.171111806806833
629 626 -4.989832283512479
629 627 4.0538481735999854E-1
629 628 -1.4276069941747815
629 629 3.0967269772135428E1
629 630 -2.8341693566863775
629 631 -1.1269457539410328
629 632 -1.202959533406914
629 633 1.1015366438307115
629 634 -2.0394385631295497E-1
629 636 -8.178562077935196E-1
629 637 -1.7110785268123712
629 638 -1.443788989482089
629 639 1.124860142251735
629 640 -6.459398271293768E-1
629 641 -1.9965812522845663E-1
630 556 -2.926200190034952E-1
630 557 -8.305630924313667E-1
630 558 5.754777741790612E-2
630 573 2.3326148130612907
630 574 -5.195564645295286
630 575 -2.4484518620295814
630 602 1.2441626581472407
630 603 -7.0251075333102415
630 604 2.20043571812801
630 605 6.803498575301143E-1
630 606 1.5476058375167447
630 607 -1.0343452569967335
630 622 4.697589397035464E-1
630 623 -8.725243107331522
630 624 -4.2177884753095285E-1
630 626 1.5538481735871673E-1
630 627 -5.523110720072976
630 628 1.681316998194664
630 629 -2.8341693566863775
630 630 2.6486673239448145E1
630 631 -1.173293799599682
630 632 6.015366438307124E-1
630 633 6.894234684753444E-1
630 634 -7.80220020676882E-1
630 636 -1.7110785268123716
630 637 5.552319071209888E-1
630 638 -9.906366192517954E-1
630 639 -6.459398271293779E-1
630 640 -1.979345354119824
630 641 2.909425912345046
631 556 1.8491020959521602
631 557 8.015953964807E-1
631 558 -3.2093106951902417
631 573 1.568626919859061
631 574 -2.4484518620295814
631 575 -3.224665033331791
631 602 -2.966765901569656
631 603 1.4563880990652154
631 604 -1.061621920421563E1
631 605 -2.2013120190908414E-1
631 606 -1.0343452569967329
631 607 2.5215629360691625
631 622 4.171111806806834
631 623 -1.314635990370905
631 624 -1.55294136938216E1
631 626 -1.4276069941747824
631 627 2.5741741410346166
631 628 -1.2712210049075079E1
631 629 -1.1269457539410328
631 630 -1.173293799599682
631 631 3.989825218651421E1
631 632 -2.0394385631295445E-1
631 633 -7.802200206768821E-1
631 634 2.0383881562297805
631 636 -1.4437889894820903
631 637 -9.906366192517955E-1
631 638 2.291736252954072
631 639 -1.9965812522845489E-1
631 640 2.909425912345046
631 641 -1.4581208561328847
632 622 -1.595388535073422E1
632 623 -7.127893209166661E-1
632 624 2.0311544987259986
632 625 4.67884817361474E-1
632 626 -2.1999114462827234
632 627 -5.067310216994717E-1
632 628 1.7845087427166226
632 629 -1.202959533406914
632 630 6.015366438307124E-1
632 631 -2.0394385631295445E-1
632 632 3.5876389029680944E1
632 633 2.5130986642620643
632 634 -5.616270226621465
632 636 -1.150272221769337E1
632 637 -1.0536264690079131
632 638 2.3425488469861686
632 639 6.800578528859333
632 640 8.436798156714349E-1
632 641 -1.875770244541732
632 719 -1.427606994177989
632 720 -2.039438563051686E-1
632 756 -8.71914564558789
632 757 -1.7545897733287723
632 758 -1.9054844478973822
632 759 -1.192858916937779
632 760 -3.984633561728606E-1
632 792 3.1693230895305176
633 622 -5.252893209179441E-1
633 623 -1.0640561369275789E1
633 624 1.1358319457083723
633 625 -1.7214514806100203
633 626 -1.9423102169819406E-1
633 627 -1.5333134005827938
633 628 -1.671224382224779E-1
633 629 1.1015366438307115
633 630 6.894234684753444E-1
633 631 -7.802200206768821E-1
633 632 2.5130986642620643
633 633 2.8051219588347877E1
633 634 -1.3910611142119582
633 636 -1.053626469007913
633 637 -1.1010796493954956E1
633 638 -1.478088256281554
633 639 8.43679815671434E-1
633 640 2.791524604312282
633 641 1.1835629269829568
633 719 4.441223627626367E-2
633 720 -7.802200206470875E-1
633 756 -2.067089773327491
633 757 -7.34071992642776
633 758 2.803848173601946E-1
633 759 -8.984633561728602E-1
633 760 7.146750097158141E-1
633 792 2.232904741072366
634 622 2.0311544987259995
634 623 3.1737956473848583E-1
634 624 -1.5435146650348777E1
634 625 8.628646172101518E-1
634 626 1.784508742716623
634 627 6.513299427474095E-1
634 628 -5.202741940339764
634 629 -2.0394385631295497E-1
634 630 -7.80220020676882E-1
634 631 2.0383881562297805
634 632 -5.616270226621465
634 633 -1.3910611142119582
634 634 3.6374766318471245E1
634 636 2.3425488469861673
634 637 -1.4780882562815552
634 638 -8.568810266760764
634 639 -1.8757702445417315
634 640 1.1835629269829566
634 641 4.45128077793083
634 719 -5.718651863886933
634 720 2.0484887726347893
634 756 3.169323089530518
634 757 1.4144523601384775
634 758 -1.4276069941779896
634 759 -2.0394385630516854E-1
634 760 -7.802200206470868E-1
634 792 -9.987573303930406
635 568 -2.934767568330694
635 569 -5.178618305427103E-1
635 589 -2.1323307767401465
635 593 -8.036262689543006E-1
635 594 -1.7099045528012196
635 608 2.4663506666243786
635 609 -5.352809348912775
635 610 7.546902969575551E-1
635 611 -1.2061047503450617
635 614 -9.787626193253087E-1
635 615 -1.2215322480842814
635 616 7.82249588064238
635 617 7.252960953697679E-2
635 618 2.314702752837338
635 619 -1.1580553356762227E1
635 620 -2.3868284588542714
635 621 1.4408647513239627
635 635 3.484590150999209E1
635 639 -8.22891934500301
635 640 6.121323568233231E-1
635 641 3.42516883479697
635 721 -8.608533997688461E-1
635 722 -1.4176982432119318
635 723 -1.8863007501052345
635 724 1.290704648512031
635 738 -4.5106120235668945E-1
635 739 -1.1237905869153897
635 740 -2.845268327186594
635 741 -2.152224475390801
635 742 5.49447874068889E-1
635 743 1.0112726813010628
635 745 -1.590428894380268E-1
635 746 1.54946921424578
635 750 2.1840503578947854
635 751 1.5058958832819669
635 752 4.3233623289006526E-2
635 753 -1.0460066518372146
635 761 -9.639414273428647
635 762 -5.093982571277976E-1
635 763 9.510265921434341E-2
635 764 1.8804961094912924
635 770 -2.719449529410946
636 570 -2.94307715304822
636 571 2.476664893706425
636 572 5.132487987310321E-1
636 573 -5.375745440411949
636 574 7.481844610456199E-1
636 575 1.1933329370514236
636 622 7.760460541386484
636 623 7.630205300652673E-2
636 624 -2.2759975112667963
636 625 5.490885839125204E-1
636 626 -2.1317205419071934
636 627 -9.77521418584957E-1
636 628 1.2185091144879687
636 629 -8.178562077935196E-1
636 630 -1.7110785268123716
636 631 -1.4437889894820903
636 632 -1.150272221769337E1
636 633 -1.053626469007913
636 634 2.3425488469861673
636 636 3.48934991437029E1
636 637 1.0976338610300587E-1
636 638 -1.8045899274862027
636 639 -8.269007177464648
636 640 6.076497946036888E-1
636 641 -3.4539160925173142
636 719 -1.0098778938649828
636 720 -4.543370110866253E-2
636 729 -8.763318392347309E-1
636 730 4.791593360036132E-1
636 731 -1.4112153472558688
636 732 -1.8908325504411865
636 733 -1.2866043096819715
636 738 -4.2012542181899437E-1
636 739 -1.1216799120343546
636 740 2.852511158415469
636 756 -1.183051118969865E-1
636 757 1.5564326007006304
636 758 -2.1407417807122626
636 759 2.2090522373652863
636 760 1.506984943037097
636 766 -9.732495522451654
636 792 2.7208982337323477
637 570 2.476664893706424
637 571 -5.902573743580654
637 572 -7.257513412556706E-1
637 573 7.481844610456194E-1
637 574 -9.115741417947479E-1
637 575 -1.7667066318713848E-1
637 622 7.630205300652647E-2
637 623 4.217056320582679
637 624 -1.5430981398345631
637 625 -3.6131943420422084
637 626 -9.775214185849566E-1
637 627 -3.8217075893315253
637 628 2.6433090503834573
637 629 -1.7110785268123712
637 630 5.552319071209888E-1
637 631 -9.906366192517955E-1
637 632 -1.0536264690079131
637 633 -1.1010796493954956E1
637 634 -1.4780882562815552
637 636 1.0976338610300587E-1
637 637 3.116746983228744E1
637 638 -1.005549679530124
637 639 6.076497946036901E-1
637 640 -4.549197543932223
637 641 1.3097687235989628
637 719 2.444510491442232
637 720 -1.076417816374987
637 729 -3.379316345836315
637 730 5.906098280730422E-1
637 731 -1.8908325504411838
637 732 -2.8386029844191607
637 733 -1.2324424578956694
637 738 -1.121679912034355
637 739 -1.9533767749630162
637 740 3.185925317307576
637 756 1.5564326007006297
637 757 -2.627753590525797E-1
637 758 5.490885839125205E-1
637 759 1.5069849430370956
637 760 2.3033572589162765
637 766 -8.76331839234731E-1
637 792 -1.9454684371937674
638 570 6.962489655874035E-2
638 571 2.765165039377886E-1
638 572 -1.8268588833935258
638 573 9.257925367955588E-2
638 574 -1.1314985398897265E-1
638 575 -1.0982154220698348
638 622 -2.2759975112667963
638 623 -1.5430981398345638
638 624 4.609166907650334
638 625 1.5490936884983015
638 626 6.314925760931203E-1
638 627 1.6707693175709735
638 628 -3.3591152698665883
638 629 -1.443788989482089
638 630 -9.906366192517954E-1
638 631 2.291736252954072
638 632 2.3425488469861686
638 633 -1.478088256281554
638 634 -8.568810266760764
638 636 -1.8045899274862027
638 637 -1.005549679530124
638 638 3.280709500816715E1
638 639 -3.4539160925173187
638 640 1.3097687235989626
638 641 -1.1612469311124372E1
638 719 -3.983694171764423
638 720 5.142093254856363
638 729 5.608817156920674E-1
638 730 -4.374401052651218
638 731 -7.045848485474634E-1
638 732 -4.005464641499049E-1
638 733 -7.200737825939718E-1
638 738 2.8525111584154708
638 739 3.1859253173075786
638 740 -3.896521809682954
638 756 2.7208982337323464
638 757 -1.9454684371937694
638 758 -4.9114367162762235E-1
638 759 -4.5433701108660324E-2
638 760 -1.0764178163749878
638 766 1.5097997765707512
638 792 -5.409931453720271
639 547 1.7254467955563086
639 568 2.4612947204867117
639 569 6.595888754501692E-1
639 570 2.506924498237686
639 571 -8.390882366731862E-1
639 572 -6.079721295642617E-1
639 573 -6.909086603677894
639 574 1.621901017125092E-1
639 575 5.043216590162897
639 581 -6.9569594250878275
639 582 -1.149528835090587E-2
639 583 -7.73299368511082
639 584 4.760447543955837
639 585 -2.2342110538898258E-2
639 590 -7.183402560514046E-1
639 591 -1.9404019897040385
639 592 -1.3122106865641752
639 593 1.1197057309013747
639 594 -6.50560744645857E-1
639 602 -1.0065993506086766
639 603 -1.9417239410818556
639 604 1.3087066858412748
639 608 -8.57318649571285E-1
639 609 -6.741923417065293
639 610 9.281608183635022E-2
639 611 -5.032827626601771
639 616 -8.223769173820047
639 617 -5.796687458659855E-2
639 618 -1.8499490764605029
639 619 6.845271670498138
639 620 1.9075931446120244
639 621 2.0450524961040165E-1
639 622 -8.186003385841168
639 623 -6.109803038310685E-2
639 624 1.8224799938656329
639 629 1.124860142251735
639 630 -6.459398271293779E-1
639 631 -1.9965812522845489E-1
639 632 6.800578528859333
639 633 8.43679815671434E-1
639 634 -1.8757702445417315
639 635 -8.22891934500301
639 636 -8.269007177464648
639 637 6.076497946036901E-1
639 638 -3.4539160925173187
639 639 6.487335680240088E1
639 640 4.1711106549503946E-1
639 641 2.8172382128070453E-2
639 738 -1.6132881937088097E1
639 739 -6.06212488818902
639 740 -1.9505102440833977E-2
639 745 -3.4494287892115416
639 746 1.5026341052427659
639 753 8.359859758086858E-1
639 756 -3.1760795476054504
639 757 1.496129545258382
639 763 6.121323568233218E-1
639 764 3.4251688347969695
639 770 1.6708761481849512
639 792 -1.6846614218435383
640 547 4.920584408562214E-1
640 568 -8.573186495712846E-1
640 569 3.116815255726417
640 570 -8.39088236673186E-1
640 571 -1.175808333860534
640 572 -3.1516218098010103
640 573 1.6219010171250972E-1
640 574 -3.7642558154092436
640 575 -6.603510540186132E-1
640 581 1.7254467955563109
640 582 3.513982394817232E-2
640 583 4.760447543955835
640 584 -1.4218454066484401E1
640 585 2.1270998631941332E-2
640 590 -1.9404019897040392
640 591 -6.245507805071615E-1
640 592 -1.347707441247801
640 593 -6.505607446458568E-1
640 594 -1.9798081656878537
640 602 -1.9417239410818565
640 603 -1.3549241662018092
640 604 1.3424949395134629
640 608 -1.0719017404559064
640 609 9.281608183634944E-2
640 610 -3.6095379675376664
640 611 5.784341879696553E-1
640 616 -5.796687458659877E-2
640 617 -8.330995971855131
640 618 -1.2312553306495797
640 619 8.35985975808683E-1
640 620 -1.180707920094819
640 621 -2.9152378281591167
640 622 -6.109803038310585E-2
640 623 -8.306511240683593
640 624 1.2356188767774556
640 629 -6.459398271293768E-1
640 630 -1.979345354119824
640 631 2.909425912345046
640 632 8.436798156714349E-1
640 633 2.791524604312282
640 634 1.1835629269829566
640 635 6.121323568233231E-1
640 636 6.076497946036888E-1
640 637 -4.549197543932223
640 638 1.3097687235989626
640 639 4.1711106549503946E-1
640 640 5.9191662849284526E1
640 641 6.925706023430514E-2
640 738 -6.062124888189019
640 739 -9.011160552936232
640 740 -6.116783515721008E-3
640 745 1.502634105242768
640 746 -7.612627892470546E-1
640 753 2.8145996754162974
640 756 1.4961295452583796
640 757 -3.635589513442114E-2
640 763 -4.515775185816285
640 764 -1.3135627725927663
640 770 -3.205670145301837E-1
640 792 3.2533924888123655E-1
641 547 3.5139823948172035E-2
641 568 6.595888754501691E-1
641 569 -2.4427081831528703
641 570 -6.079721295642622E-1
641 571 -3.15162180980101
641 572 -2.427359039003696
641 573 5.043216590162896
641 574 -6.603510540186115E-1
641 575 -1.1830838600423203E1
641 581 -1.1495288350905077E-2
641 582 1.7030296140790733
641 583 -2.234211053889723E-2
641 584 2.1270998631941235E-2
641 585 -5.281295494402223
641 590 -1.3122106865641785
641 591 -1.3477074412478007
641 592 8.915953939638248E-1
641 593 2.0450524961040356E-1
641 594 -2.915237828159117
641 602 1.308706685841276
641 603 1.3424949395134629
641 604 6.055238565536752E-1
641 608 3.1168152557264177
641 609 -5.032827626601771
641 610 5.784341879696546E-1
641 611 -1.1789677159295731E1
641 616 -1.8499490764605033
641 617 -1.2312553306495806
641 618 -5.713097668881858
641 619 1.9075931446120227
641 620 4.510255257582261
641 621 -1.4594592239306228
641 622 1.822479993865633
641 623 1.2356188767774547
641 624 -5.662639641438968
641 629 -1.9965812522845663E-1
641 630 2.909425912345046
641 631 -1.4581208561328847
641 632 -1.875770244541732
641 633 1.1835629269829568
641 634 4.45128077793083
641 635 3.42516883479697
641 636 -3.4539160925173142
641 637 1.3097687235989628
641 638 -1.1612469311124372E1
641 639 2.8172382128070453E-2
641 640 6.925706023430514E-2
641 641 6.341325596940801E1
641 738 -1.9505102440835587E-2
641 739 -6.116783515721647E-3
641 740 -4.86111503897725
641 745 1.6708761481849508
641 746 -3.205670145301861E-1
641 753 -1.1807079200948187
641 756 -1.6846614218435372
641 757 3.253392488812384E-1
641 763 -1.3135627725927657
641 764 -1.1550229706268652E1
641 770 1.155469412330053E-1
641 792 3.9852211228164325E-1
642 642 6.288852783200105
642 643 1.4538984630292554E-1
642 644 5.192135989000511E-1
642 645 -5.15670448257621
642 646 3.629456713573755E-1
642 647 -3.791781135615052E-2
642 648 -9.770107811522644E-2
642 649 4.212454212504182E-2
642 650 1.3736263736097098E-1
642 651 -3.497319333254296E-1
642 652 1.3159455127812683E-1
642 653 6.313415750951278E-1
642 665 -3.6947278908006154E-1
642 666 3.958333333329082E-1
642 667 -3.124999999978643E-1
642 668 8.829945089765351E-1
642 669 -6.47028775752587E-1
642 670 -1.0439560439585371
642 675 2.6902349243267926E-1
642 676 -1.2454212454162604E-1
642 677 2.1062271062520815E-1
642 678 -1.467260501512391
642 679 -3.06317044102165E-1
642 680 -1.0416666666880586E-1
643 642 1.4538984630292554E-1
643 643 7.154322182959593
643 644 1.970948704277793
643 645 4.2544567135726064E-1
643 646 -5.565677866155193
643 647 -1.439417353465333
643 648 1.2545787545837522E-1
643 649 -3.7119581586077705E-1
643 650 7.907509157492381E-1
643 651 -1.4238782055092214E-2
643 652 2.154664653121613E-1
643 653 2.5206235616985856E-1
643 665 2.291666666662406E-1
643 666 -7.204931972063675E-1
643 667 6.271258503138702E-1
643 668 -6.470287757525852E-1
643 669 1.8458754897029368
643 670 -5.995879120777489E-1
643 675 4.212454212504099E-2
643 676 -2.245059876416018E-1
643 677 -1.1861263736238534
643 678 -3.063170441021654E-1
643 679 -2.3337912711107522
643 680 -4.157561873438248E-1
644 642 5.192135989000511E-1
644 643 1.970948704277793
644 644 1.217886470714798E1
644 645 3.7874885531051605E-1
644 646 -9.185840201291566E-1
644 647 -1.1372996212647447E1
644 648 6.868131868048397E-2
644 649 3.9537545787462075E-1
644 650 -1.3397054113602316E-1
644 651 2.833562271089475E-1
644 652 1.2660448070829952E-1
644 653 2.2038763344576393E-1
644 665 -3.124999999978644E-1
644 666 1.2223639455477364
644 667 -5.164115645742309E-1
644 668 -1.0439560439585363
644 669 -5.995879120777509E-1
644 670 6.622793935376111E-1
644 675 6.272893772918745E-1
644 676 -1.1861263736238539
644 677 1.2719287083182868E-2
644 678 -5.208333333354722E-1
644 679 -1.010994282577688
644 680 -1.0508727028568399
645 642 -5.15670448257621
645 643 4.2544567135726064E-1
645 644 3.7874885531051605E-1
645 645 7.60877949786001
645 646 -4.8564493454089946E-2
645 647 -4.930011579947424E-1
645 660 6.588541666049498E-1
645 661 3.385416666686665E-2
645 662 -1.692708333356122E-1
645 665 -6.815476189467836E-1
645 666 2.708333333276146E-1
645 667 3.1249999999786465E-1
645 668 -3.2288783401212005
645 669 -1.3699441100911275E-1
645 670 -2.2417065371949738E-1
645 672 -1.458333333317313E-1
645 673 -1.0416666666709408E-1
645 674 -6.250000000014241E-1
645 675 -1.896707077495803
645 676 3.7784475603905035E-2
645 677 -2.3989709893282862E-2
645 678 2.8420371880067683
645 679 -4.781920758253501E-1
645 680 8.441834996361781E-1
646 642 3.629456713573755E-1
646 643 -5.565677866155193
646 644 -9.185840201291566E-1
646 645 -4.8564493454089946E-2
646 646 8.50872895427921
646 647 1.1906239218842776
646 660 1.3020833333419406E-2
646 661 7.088541666051519E-1
646 662 -1.9531249999429345E-1
646 665 1.0416666666094826E-1
646 666 -2.815476189193365E-1
646 667 -3.7202380952159053E-1
646 668 -1.3699441100911236E-1
646 669 -3.712513958508722
646 670 -9.450807973630838E-1
646 672 -2.0833333333760924E-2
646 673 -4.9583333332967916E-1
646 674 -1.041666666659537
646 675 2.0445114227057082E-1
646 676 -2.8293347536111546
646 677 2.529613699642903E-1
646 678 -4.781920758253507E-1
646 679 3.6673244096397237
646 680 2.0290825018190946
647 642 -3.791781135615052E-2
647 643 -1.439417353465333
647 644 -1.1372996212647447E1
647 645 -4.930011579947424E-1
647 646 1.1906239218842776
647 647 1.4307127057961802E1
647 660 -6.510416666965715E-2
647 661 -1.9531249998789177E-1
647 662 1.6463541665124546
647 665 3.124999999978645E-1
647 666 -9.672619047554567E-1
647 667 -1.7101190473995538
647 668 1.9249601294717222E-1
647 669 -3.498427021292191E-1
647 670 -4.260206850149957
647 672 -3.125000000007131E-1
647 673 -5.208333333297633E-1
647 674 -1.8333333333176413E-1
647 675 -4.4065637655995404E-1
647 676 2.529613699642921E-1
647 677 -3.2861023206074074
647 678 8.441834996361803E-1
647 679 2.029082501819095
647 680 4.85927653966187
648 458 -1.458333333317478E-1
648 459 2.0833333333760258E-2
648 460 3.1250000000071204E-1
648 642 -9.770107811522644E-2
648 643 1.2545787545837522E-1
648 644 6.868131868048397E-2
648 648 1.4075960638895252E1
648 649 -2.2132932738526898E-1
648 650 2.5000000000000036
648 655 -9.991054946194361E-2
648 656 -2.364796182716667E-1
648 657 -4.8534798534714774E-1
648 675 -1.2985920329610522E1
648 676 -1.7980470072338109E-16
648 677 -1.6666666666666667
648 678 -7.465953483758119E-1
648 679 3.115177368648003E-1
648 680 -7.291666666673845E-1
649 458 1.0416666666709357E-1
649 459 -4.9583333332969726E-1
649 460 -5.208333333297691E-1
649 642 4.212454212504182E-2
649 643 -3.7119581586077705E-1
649 644 3.9537545787462075E-1
649 648 -2.2132932738526898E-1
649 649 1.4226127960809025E1
649 650 -8.992806499463768E-15
649 655 -2.364796182716669E-1
649 656 6.900104335886931E-2
649 657 -3.953754578746173E-1
649 675 -1.4751311836950572E-16
649 676 -1.2985920329610522E1
649 677 -1.377253250851419E-15
649 678 3.1151773686480055E-1
649 679 -4.421795253668979E-1
649 680 5.208333333297758E-1
650 458 6.250000000014229E-1
650 459 -1.0416666666595438
650 460 -1.8333333333180502E-1
650 642 1.3736263736097098E-1
650 643 7.907509157492381E-1
650 644 -1.3397054113602316E-1
650 648 2.5000000000000036
650 649 -8.992806499463768E-15
650 650 3.313058594987864E1
650 655 -9.706959706943017E-1
650 656 -7.907509157492335E-1
650 657 -8.831287457977715E-3
650 675 -8.333333333333327E-1
650 676 -1.42223887215265E-15
650 677 -3.2464800824026305E1
650 678 -1.4583333333347623
650 679 1.0416666666595493
650 680 -3.396499639265316E-1
651 598 -3.070981482542641E-1
651 642 -3.497319333254296E-1
651 643 -1.4238782055092214E-2
651 644 2.833562271089475E-1
651 651 1.1912384578517425E1
651 652 -6.646698423327323E-1
651 653 -1.3889609301279129
651 654 1.562499999891416E-1
651 658 2.57292941066037
651 659 -4.0122753768790875E-1
651 663 4.283854166652916E-1
651 664 -6.835937499942697E-1
651 665 -1.8493303571808106
651 666 -3.0468749999900896E-1
651 667 2.734374999973097E-1
651 668 -4.197998779459026
651 669 3.3910841791770374E-1
651 670 1.2704857454435579
651 671 -3.937959179171633E-1
651 678 -2.8548137790342714
651 679 8.548757454197686E-1
651 680 7.681716012567664E-1
651 684 -2.7529761908456674E-1
651 685 7.812500000161154E-1
651 710 -1.8449280752906458
651 711 -3.113213445803043
651 712 -9.970482454462495E-1
652 598 7.164777458626536E-1
652 642 1.3159455127812683E-1
652 643 2.154664653121613E-1
652 644 1.2660448070829952E-1
652 651 -6.646698423327323E-1
652 652 1.2724796824772742E1
652 653 2.90628878012711
652 654 4.9255952377147527E-1
652 658 -4.0122753768790853E-1
652 659 2.0514649599123826
652 663 -2.3077256942907005
652 664 1.1114211308823227
652 665 -1.7968749999923556E-1
652 666 -2.568973214367015
652 667 1.4601934524112359
652 668 3.391084179177032E-1
652 669 -3.3257191854332593
652 670 -2.3187748810489683
652 671 -3.0087073255419616
652 678 8.548757454197689E-1
652 679 -4.273162354135822
652 680 -1.4939766614806724
652 684 3.1249999989368685E-2
652 685 1.1160714287881582E-1
652 710 2.8255208333207293E-1
652 711 -3.9379591791716406E-1
652 712 -2.619841190340797
653 598 6.179900643804673
653 642 6.313415750951278E-1
653 643 2.5206235616985856E-1
653 644 2.2038763344576393E-1
653 651 -1.3889609301279129
653 652 2.90628878012711
653 653 2.3594018937722797E1
653 654 1.11607142866014E-1
653 658 -6.550834962404443E-1
653 659 -7.862298673046386E-2
653 663 1.781063988013879
653 664 -4.02647569422759
653 665 2.734374999973101E-1
653 666 2.5018601190835934
653 667 -3.95290178576534
653 668 1.2704857454435579
653 669 -2.3187748810489732
653 670 -1.1062078966547405E1
653 671 -2.6198411903407948
653 678 1.3931716012581878
653 679 -2.5356433281402233
653 680 -4.207918516992549
653 684 1.5625000001469286E-1
653 685 1.4970238094537853
653 710 -6.835937499942704E-1
653 711 -9.970482454462479E-1
653 712 -8.24195606089413
654 598 2.604166666569876E-1
654 599 -1.490714285663779
654 651 1.562499999891416E-1
654 652 4.9255952377147527E-1
654 653 1.11607142866014E-1
654 654 1.3860208333250013E1
654 658 4.375000000004935E-1
654 659 9.883928571399085E-1
654 663 -4.021875000164085
654 664 1.8043154762681382
654 671 -7.2018601190936105
654 684 -2.4791666663001682E-1
654 685 1.0416666666058723
654 686 -1.3020833333528464E-2
654 687 1.3523065475761331
654 688 4.185267857153244E-1
654 692 -4.0833333334684474E-1
654 693 -2.2321428568026636E-1
654 707 3.4374999996428046E-1
654 708 -6.113392856765093
654 709 8.556547618927446E-1
654 710 -2.1354166666493565E-1
654 711 4.1927083333452214E-1
654 712 -2.836681547584889
654 713 -4.7395833331311193E-1
654 714 2.134374999949039
654 715 -1.4322916667399257
655 458 -3.228878340093763
655 459 1.3699441100697474E-1
655 460 -1.9249601294450078E-1
655 461 4.068040327901349E-1
655 462 6.470287757542015E-1
655 463 1.0439560439527664
655 471 -5.113095238138182
655 472 -8.750000000002377E-1
655 473 4.1666666667167407E-1
655 491 -3.0588618746290277
655 492 -4.4848341791490737E-1
655 493 -1.348610745436093
655 598 -5.268216312768438E-1
655 648 -9.991054946194361E-2
655 649 -2.364796182716669E-1
655 650 -9.706959706943017E-1
655 655 1.7047378568195477E1
655 656 5.25447570697929E-1
655 657 5.504482434876851E-1
655 658 -1.2493967157296415
655 659 3.7922031819367097E-1
655 675 2.1581157005613143
655 676 -4.2995051512987703E-1
655 677 7.623353364416405E-1
655 678 1.0822812451318048E-1
655 679 2.847925759382679E-1
655 680 3.417310365354612E-1
655 681 -6.970383708007549
655 682 1.6429899725644376E-2
655 683 -7.651296673748777E-2
656 458 1.3699441100697368E-1
656 459 -3.7125139584563027
656 460 -3.4984270212983326E-1
656 461 6.470287757541995E-1
656 462 6.55399299268225E-1
656 463 -5.995879120966947E-1
656 471 -8.75000000000237E-1
656 472 -1.2170238095317238E1
656 473 2.083333333358367
656 491 -4.4848341791490653E-1
656 492 -2.354439423478516
656 493 -2.7093998810439794
656 598 3.427163010980988E-1
656 648 -2.364796182716667E-1
656 649 6.900104335886931E-2
656 650 -7.907509157492335E-1
656 655 5.25447570697929E-1
656 656 2.5238539377224697E1
656 657 -1.1607158011313106
656 658 3.792203181936705E-1
656 659 -5.478205070886345E-1
656 675 -4.299505151298776E-1
656 676 2.7589177924997865
656 677 1.6156069861354454
656 678 2.8479257593826834E-1
656 679 -1.713043056405505
656 680 -9.325437085138285E-1
656 681 1.6429899725645427E-2
656 682 -8.223802471605383
656 683 2.5011843000729685
657 458 2.2417065372216882E-1
657 459 -9.45080797363693E-1
657 460 -4.260206850108569
657 461 1.0439560439527655
657 462 -5.995879120967009E-1
657 463 1.8608891731846325E-1
657 471 2.083333333397643E-1
657 472 1.04166666669882
657 473 -4.938095238166187
657 491 -1.3486107454360936
657 492 -2.7093998810439834
657 493 -7.947942061599663
657 598 -5.663662843231524E-1
657 648 -4.8534798534714774E-1
657 649 -3.953754578746173E-1
657 650 -8.831287457977715E-3
657 655 5.504482434876851E-1
657 656 -1.1607158011313106
657 657 2.6907774982617603E1
657 658 -1.0121696166239975
657 659 5.42578938457349E-1
657 675 7.623353364416396E-1
657 676 1.6156069861354456
657 677 5.181442623075871
657 678 1.333977032007046E-1
657 679 1.0912295814572015E-1
657 680 1.6334626148148113
657 681 -7.651296673748872E-2
657 682 2.5011843000729708
657 683 -1.6187327416171197E1
658 471 -1.2529761904775967
658 472 4.3750000000012057E-1
658 473 -2.0833333333583798E-1
658 491 -3.32563904113345
658 492 4.48483417914908E-1
658 493 1.0361107454382283
658 590 -1.4538690476765816
658 591 -6.562500000003187E-1
658 592 6.25000000007645E-1
658 598 1.4424597776252461
658 599 1.9886363637618332E-1
658 602 -5.160443722799068
658 603 -4.772727272707913E-1
658 604 -2.130681818178929
658 651 2.57292941066037
658 652 -4.0122753768790853E-1
658 653 -6.550834962404443E-1
658 654 4.375000000004935E-1
658 655 -1.2493967157296415
658 656 3.792203181936705E-1
658 657 -1.0121696166239975
658 658 2.1354564062499946E1
658 659 4.636365097276507E-2
658 671 2.272727272696979E-1
658 678 -2.0660280226947076
658 679 -4.419700678550054E-1
658 680 4.013424426210649E-2
658 681 1.8515527507859662
658 682 -1.984834179138152E-1
658 683 2.0888892545630013
658 684 1.7455357142772718
658 685 5.729166666733059E-1
658 692 -1.84361471858267
658 693 -8.04924242368024E-1
658 711 -1.117261447912984E1
658 712 -9.943181818223017E-1
659 471 4.3750000000012107E-1
659 472 -3.4386904762081008
659 473 1.3392857142562797
659 491 4.4848341791490837E-1
659 492 -2.601490063712919
659 493 -2.424528690393429
659 590 -6.562500000003194E-1
659 591 -3.175297619107072
659 592 1.934523809570493
659 598 -2.4362762625699927
659 599 -2.0335497832247507E-1
659 602 -4.772727272707913E-1
659 603 -6.022781385127832
659 604 -2.617694805127883
659 651 -4.0122753768790875E-1
659 652 2.0514649599123826
659 653 -7.862298673046386E-2
659 654 9.883928571399085E-1
659 655 3.7922031819367097E-1
659 656 -5.478205070886345E-1
659 657 5.42578938457349E-1
659 658 4.636365097276507E-2
659 659 2.387917389213089E1
659 671 -1.2072125359356715E1
659 678 -4.4197006785500614E-1
659 679 -1.7467236361805067
659 680 -7.366894294420963E-1
659 681 -1.9848341791381513E-1
659 682 2.8892523159210732
659 683 8.977997374835882E-1
659 684 4.375000000004938E-1
659 685 -7.068452380988055E-1
659 692 1.988636363761836E-1
659 693 1.4204545455723788E-1
659 711 2.2727272726969738E-1
659 712 4.144423758037723
660 645 6.588541666049498E-1
660 646 1.3020833333419406E-2
660 647 -6.510416666965715E-2
660 660 1.9491071428608247E1
660 661 -1.8750000000114284E-1
660 662 9.375000000210721E-1
660 663 -1.3020833333419163E-2
660 664 2.7343750000156575E-1
660 665 -9.09895833338564
660 666 2.6041666666839366E-2
660 667 -5.468750000031372E-1
660 668 -8.614583333513496
660 669 2.1875000000125316E-1
660 670 -6.770833333424422E-1
660 671 -1.0937500000062719E-1
660 697 1.087797618960302
660 698 5.2083333333677206E-2
660 699 -2.6041666667862756E-1
660 710 -7.355282737838243
660 711 3.831101190563883
660 712 3.385416666712264E-1
661 645 3.385416666686665E-2
661 646 7.088541666051519E-1
661 647 -1.9531249998789177E-1
661 660 -1.8750000000114284E-1
661 661 2.0519642857185477E1
661 662 -5.580357142877671
661 663 -7.405282737838445
661 664 1.5345982142638124
661 665 6.770833333373383E-2
661 666 -8.99895833338524
661 667 1.6927083333433428
661 668 2.1875000000125258E-1
661 669 -9.66458333351952
661 670 3.3854166667122296
661 671 3.6418154762774764
661 697 1.0416666666783186E-2
661 698 1.1985119046751003
661 699 -3.3482142856542296E-1
661 710 -3.3854166666866255E-2
661 711 -1.0937500000062725E-1
661 712 -5.022321428884007E-1
662 645 -1.692708333356122E-1
662 646 -1.9531249999429345E-1
662 647 1.6463541665124546
662 660 9.375000000210721E-1
662 661 -5.580357142877671
662 662 4.730535714294113E1
662 663 8.649553571322559E-1
662 664 -1.8387425594595687E1
662 665 -5.468750000031378E-1
662 666 6.510416666709813E-1
662 667 -2.2748958333463943E1
662 668 -8.85416666674351E-1
662 669 4.427083333371789
662 670 -2.0289583333776587E1
662 671 1.6741071424955756E-1
662 697 -5.208333334671762E-2
662 698 -3.3482142855262137E-1
662 699 2.8056547616870846
662 710 2.734375000015654E-1
662 711 4.4270833333718135E-1
662 712 9.66860119069555
663 651 4.283854166652916E-1
663 652 -2.3077256942907005
663 653 1.781063988013879
663 654 -4.021875000164085
663 660 -1.3020833333419163E-2
663 661 -7.405282737838445
663 662 8.649553571322559E-1
663 663 2.304157986126694E1
663 664 -4.431733630992114
663 665 -1.744791666721937E-1
663 666 6.505208332261367E-1
663 667 -1.9531249998453154E-1
663 668 4.3749999999330924E-1
663 669 5.67083333348671
663 670 -1.5625000000136542
663 671 -9.383035714411562
663 684 -3.1770833333127435E-1
663 685 2.7715773810424493
663 697 3.906250000024915E-2
663 698 -7.546056547809273
663 699 3.8132440477236657E-1
663 707 -3.4895833334471976E-1
663 708 1.301041666534276
663 709 -3.906249999774685E-1
663 710 1.6796875001940736E-1
663 711 -2.187499999966506E-1
663 712 7.81250000006819E-1
664 651 -6.835937499942697E-1
664 652 1.1114211308823227
664 653 -4.02647569422759
664 654 1.8043154762681382
664 660 2.7343750000156575E-1
664 661 1.5345982142638124
664 662 -1.8387425594595687E1
664 663 -4.431733630992114
664 664 4.038532986124544E1
664 665 3.906249999690528E-2
664 666 -1.953124999845311E-1
664 667 1.5880208331826076
664 668 3.125000000027318E-1
664 669 -1.5625000000136549
664 670 1.3170833333490803E1
664 671 7.812500000068157E-1
664 684 5.468749999929873E-1
664 685 -7.459375000215312
664 697 -8.203125000045184E-1
664 698 1.3485863095466808
664 699 -1.9242485119524364E1
664 707 7.81249999954931E-2
664 708 -3.90624999977469E-1
664 709 3.176041666456849
664 710 4.101562500104735E-1
664 711 -1.5625000000136885E-1
664 712 -9.204464285812742
665 642 -3.6947278908006154E-1
665 643 2.291666666662406E-1
665 644 -3.124999999978644E-1
665 645 -6.815476189467836E-1
665 646 1.0416666666094826E-1
665 647 3.124999999978645E-1
665 651 -1.8493303571808106
665 652 -1.7968749999923556E-1
665 653 2.734374999973101E-1
665 660 -9.09895833338564
665 661 6.770833333373383E-2
665 662 -5.468750000031378E-1
665 663 -1.744791666721937E-1
665 664 3.906249999690528E-2
665 665 1.6724383503468022E1
665 666 -4.6874999989489685E-2
665 667 2.3437500000892814E-1
665 668 -5.238095238135786
665 669 -3.3827863024304708E-15
665 670 -6.318765199184362E-15
665 710 5.130208332610615E-1
666 642 3.958333333329082E-1
666 643 -7.204931972063675E-1
666 644 1.2223639455477364
666 645 2.708333333276146E-1
666 646 -2.815476189193365E-1
666 647 -9.672619047554567E-1
666 651 -3.0468749999900896E-1
666 652 -2.568973214367015
666 653 2.5018601190835934
666 660 2.6041666666839366E-2
666 661 -8.99895833338524
666 662 6.510416666709813E-1
666 663 6.505208332261367E-1
666 664 -1.953124999845311E-1
666 665 -4.6874999989489685E-2
666 666 2.5014689625991185E1
666 667 -3.212691326562326
666 668 -1.7071189489125722E-15
666 669 -1.3095238095339367E1
666 670 2.872787575583109E-15
666 710 -3.411458333388609E-1
667 642 -3.124999999978643E-1
667 643 6.271258503138702E-1
667 644 -5.164115645742309E-1
667 645 3.1249999999786465E-1
667 646 -3.7202380952159053E-1
667 647 -1.7101190473995538
667 651 2.734374999973097E-1
667 652 1.4601934524112359
667 653 -3.95290178576534
667 660 -5.468750000031372E-1
667 661 1.6927083333433428
667 662 -2.2748958333463943E1
667 663 -1.9531249998453154E-1
667 664 1.5880208331826076
667 665 2.3437500000892814E-1
667 666 -3.212691326562326
667 667 3.257846513615634E1
667 668 -6.6555584541265005E-15
667 669 -8.950745639212743E-16
667 670 -5.238095238135884
667 710 3.9062499996904726E-2
668 642 8.829945089765351E-1
668 643 -6.470287757525852E-1
668 644 -1.0439560439585363
668 645 -3.2288783401212005
668 646 -1.3699441100911236E-1
668 647 1.9249601294717222E-1
668 651 -4.197998779459026
668 652 3.391084179177032E-1
668 653 1.2704857454435579
668 660 -8.614583333513496
668 661 2.1875000000125258E-1
668 662 -8.85416666674351E-1
668 663 4.3749999999330924E-1
668 664 3.125000000027318E-1
668 665 -5.238095238135786
668 666 -1.7071189489125722E-15
668 667 -6.6555584541265005E-15
668 668 2.531077142567821E1
668 669 1.3080242930560337E-1
668 670 -8.169824350385846E-2
668 671 -7.073453181929571E-1
668 672 -9.991054946440976E-2
668 673 2.364796182715289E-1
668 674 9.706959706981513E-1
668 675 2.158115700575166
668 676 4.2995051512901433E-1
668 677 -7.623353364412941E-1
668 678 -6.9703837079904485
668 679 -1.6429899728549024E-2
668 680 7.651296673452254E-2
668 681 1.0822812453095773E-1
668 682 -2.847925759352064E-1
668 683 -3.417310365380436E-1
668 710 5.270833333423869
668 711 -5.381093144500377
668 712 2.9244663128995374E-1
669 642 -6.47028775752587E-1
669 643 1.8458754897029368
669 644 -5.995879120777509E-1
669 645 -1.3699441100911275E-1
669 646 -3.712513958508722
669 647 -3.498427021292191E-1
669 651 3.3910841791770374E-1
669 652 -3.3257191854332593
669 653 -2.3187748810489732
669 660 2.1875000000125316E-1
669 661 -9.66458333351952
669 662 4.427083333371789
669 663 5.67083333348671
669 664 -1.5625000000136549
669 665 -3.3827863024304708E-15
669 666 -1.3095238095339367E1
669 667 -8.950745639212743E-16
669 668 1.3080242930560337E-1
669 669 3.4637646520434615E1
669 670 -3.504465801171825
669 671 -5.247374078742565
669 672 2.364796182715292E-1
669 673 6.900104335625118E-2
669 674 -7.907509157515596E-1
669 675 4.299505151290156E-1
669 676 2.758917792513749
669 677 1.6156069861391469
669 678 -1.642989972854874E-2
669 679 -8.223802471572355
669 680 2.5011843000626888
669 681 -2.847925759352064E-1
669 682 -1.7130430563784815
669 683 -9.32543708516906E-1
669 710 4.374999999933101E-1
669 711 -7.073453181929575E-1
669 712 1.514591301136265
670 642 -1.0439560439585371
670 643 -5.995879120777489E-1
670 644 6.622793935376111E-1
670 645 -2.2417065371949738E-1
670 646 -9.450807973630838E-1
670 647 -4.260206850149957
670 651 1.2704857454435579
670 652 -2.3187748810489683
670 653 -1.1062078966547405E1
670 660 -6.770833333424422E-1
670 661 3.3854166667122296
670 662 -2.0289583333776587E1
670 663 -1.5625000000136542
670 664 1.3170833333490803E1
670 665 -6.318765199184362E-15
670 666 2.872787575583109E-15
670 667 -5.238095238135884
670 668 -8.169824350385846E-2
670 669 -3.504465801171825
670 670 4.702116784058118E1
670 671 1.7144539384943525
670 672 4.8534798534907403E-1
670 673 -3.953754578757812E-1
670 674 -8.831287459462255E-3
670 675 -7.623353364412933E-1
670 676 1.6156069861391447
670 677 5.18144262312128
670 678 7.651296673452007E-2
670 679 2.5011843000626857
670 680 -1.6187327416152822E1
670 681 -1.333977032032838E-1
670 682 1.0912295814264728E-1
670 683 1.6334626148407372
670 710 3.1250000000273215E-1
670 711 7.777946166390334E-1
670 712 -1.0623062713349505E1
671 491 4.01227537684271E-1
671 492 2.051464959873771
671 493 -7.86229867627678E-2
671 598 4.144423758037725
671 599 1.8054924241986385
671 602 -5.17045454547153E-1
671 603 -3.6572646101063594E-1
671 604 -1.3105384198956083
671 651 -3.937959179171633E-1
671 652 -3.0087073255419616
671 653 -2.6198411903407948
671 654 -7.2018601190936105
671 658 2.272727272696979E-1
671 659 -1.2072125359356715E1
671 660 -1.0937500000062719E-1
671 661 3.6418154762774764
671 662 1.6741071424955756E-1
671 663 -9.383035714411562
671 664 7.812500000068157E-1
671 668 -7.073453181929571E-1
671 669 -5.247374078742565
671 670 1.7144539384943525
671 671 3.436025817300178E1
671 678 1.9848341791772028E-1
671 679 2.889252315965368
671 680 8.977997374955149E-1
671 681 4.4197006786079346E-1
671 682 -1.746723636144261
671 683 -7.366894294359805E-1
671 684 4.1927083333452153E-1
671 685 -2.8366815475848837
671 692 -5.606060606032474E-1
671 693 8.049242424103522E-1
671 697 2.4609375000140887E-1
671 698 -6.371168154991517
671 699 3.3993675595778132
671 707 4.3749999999219297E-1
671 708 5.670833333607018
671 709 -1.5625000000469194
671 710 -2.1874999999664987E-1
671 711 5.437025052637889E-2
671 712 -3.4809022096521756
671 713 8.072916667081266E-2
671 714 -5.022395833631213
671 715 7.161458334469987E-1
672 461 -9.770107811451029E-2
672 462 -1.2545787545722106E-1
672 463 -6.868131868240754E-2
672 645 -1.458333333317313E-1
672 646 -2.0833333333760924E-2
672 647 -3.125000000007131E-1
672 668 -9.991054946440976E-2
672 669 2.364796182715292E-1
672 670 4.8534798534907403E-1
672 672 1.4075960638935918E1
672 673 2.2132932738315766E-1
672 674 -2.500000000000003
672 675 -1.2985920329654881E1
672 676 -5.500215738885126E-18
672 677 1.666666666666667
672 681 -7.465953483703865E-1
672 682 -3.115177368637048E-1
672 683 7.291666666673831E-1
673 461 -4.2124542123887596E-2
673 462 -3.7119581586146716E-1
673 463 3.9537545787578215E-1
673 645 -1.0416666666709408E-1
673 646 -4.9583333332967916E-1
673 647 -5.208333333297633E-1
673 668 2.364796182715289E-1
673 669 6.900104335625118E-2
673 670 -3.953754578757812E-1
673 672 2.2132932738315766E-1
673 673 1.4226127960851942E1
673 674 -1.915134717478395E-14
673 675 9.227667869777504E-17
673 676 -1.2985920329654881E1
673 677 4.855343220085731E-15
673 681 -3.11517736863705E-1
673 682 -4.421795253621667E-1
673 683 5.20833333329777E-1
674 461 -1.3736263736481819E-1
674 462 7.907509157515609E-1
674 463 -1.3397054113601625E-1
674 645 -6.250000000014241E-1
674 646 -1.041666666659537
674 647 -1.8333333333176413E-1
674 668 9.706959706981513E-1
674 669 -7.907509157515596E-1
674 670 -8.831287459462255E-3
674 672 -2.500000000000003
674 673 -1.915134717478395E-14
674 674 3.313058594998806E1
674 675 8.33333333333333E-1
674 676 2.9660815655736368E-15
674 677 -3.24648008241372E1
674 681 1.4583333333347615
674 682 1.0416666666595524
674 683 -3.396499639236166E-1
675 458 -1.8967070774712638
675 459 -2.0445114226900135E-1
675 460 4.4065637655625667E-1
675 461 2.6902349243029505E-1
675 462 -4.212454212388686E-2
675 463 -6.272893772861019E-1
675 642 2.6902349243267926E-1
675 643 4.212454212504099E-2
675 644 6.272893772918745E-1
675 645 -1.896707077495803
675 646 2.0445114227057082E-1
675 647 -4.4065637655995404E-1
675 648 -1.2985920329610522E1
675 649 -1.4751311836950572E-16
675 650 -8.333333333333327E-1
675 655 2.1581157005613143
675 656 -4.299505151298776E-1
675 657 7.623353364416396E-1
675 668 2.158115700575166
675 669 4.299505151290156E-1
675 670 -7.623353364412933E-1
675 672 -1.2985920329654881E1
675 673 9.227667869777504E-17
675 674 8.33333333333333E-1
675 675 3.4109640646064825E1
675 676 -4.7363779565046116E-12
675 677 -8.827463473976429E-12
675 678 -4.59933210894463
675 679 5.92277115276206E-1
675 680 2.336385576381315
675 681 -4.599332108887182
675 682 -5.922771152733317E-1
675 683 -2.3363855763749086
676 458 -3.7784475602335194E-2
676 459 -2.8293347535878977
676 460 2.529613699781321E-1
676 461 1.2454212454277994E-1
676 462 -2.2450598764352817E-1
676 463 -1.1861263736273346
676 642 -1.2454212454162604E-1
676 643 -2.245059876416018E-1
676 644 -1.1861263736238539
676 645 3.7784475603905035E-2
676 646 -2.8293347536111546
676 647 2.529613699642921E-1
676 648 -1.7980470072338109E-16
676 649 -1.2985920329610522E1
676 650 -1.42223887215265E-15
676 655 -4.2995051512987703E-1
676 656 2.7589177924997865
676 657 1.6156069861354456
676 668 4.2995051512901433E-1
676 669 2.758917792513749
676 670 1.6156069861391447
676 672 -5.500215738885126E-18
676 673 -1.2985920329654881E1
676 674 2.9660815655736368E-15
676 675 -4.7363779565046116E-12
676 676 3.523553868325403E1
676 677 2.8916370465450636
676 678 5.922771152762063E-1
676 679 -4.336926063286793
676 680 -2.128260505762254
676 681 -5.922771152733313E-1
676 682 -4.3369260632311954
676 683 -2.128260505748637
677 458 2.3989709889586985E-2
677 459 2.529613699781326E-1
677 460 -3.286102320556721
677 461 -2.1062271061943702E-1
677 462 -1.186126373627335
677 463 1.271928708195814E-2
677 642 2.1062271062520815E-1
677 643 -1.1861263736238534
677 644 1.2719287083182868E-2
677 645 -2.3989709893282862E-2
677 646 2.529613699642903E-1
677 647 -3.2861023206074074
677 648 -1.6666666666666667
677 649 -1.377253250851419E-15
677 650 -3.2464800824026305E1
677 655 7.623353364416405E-1
677 656 1.6156069861354454
677 657 5.181442623075871
677 668 -7.623353364412941E-1
677 669 1.6156069861391469
677 670 5.18144262312128
677 672 1.666666666666667
677 673 4.855343220085731E-15
677 674 -3.24648008241372E1
677 675 -8.827463473976429E-12
677 676 2.8916370465450636
677 677 7.61697827594235E1
677 678 2.336385576381315
677 679 -2.128260505762256
677 680 -7.528150145287798
677 681 -2.336385576374909
677 682 -2.1282605057486377
677 683 -7.528150145170358
678 598 7.693009109294848E-1
678 642 -1.467260501512391
678 643 -3.063170441021654E-1
678 644 -5.208333333354722E-1
678 645 2.8420371880067683
678 646 -4.781920758253507E-1
678 647 8.441834996361803E-1
678 648 -7.465953483758119E-1
678 649 3.1151773686480055E-1
678 650 -1.4583333333347623
678 651 -2.8548137790342714
678 652 8.548757454197689E-1
678 653 1.3931716012581878
678 655 1.0822812451318048E-1
678 656 2.8479257593826834E-1
678 657 1.333977032007046E-1
678 658 -2.0660280226947076
678 659 -4.4197006785500614E-1
678 668 -6.9703837079904485
678 669 -1.642989972854874E-2
678 670 7.651296673452007E-2
678 671 1.9848341791772028E-1
678 675 -4.59933210894463
678 676 5.922771152762063E-1
678 677 2.336385576381315
678 678 2.16029212957871E1
678 679 -9.990375039037696E-1
678 680 -1.4848963369088017
678 681 -7.700325890593295
678 682 -1.9234732661795946E-12
678 683 -8.48232240642942E-13
678 711 1.851552750838502
678 712 -2.0888892545605073
679 598 -6.622846675380056E-1
679 642 -3.06317044102165E-1
679 643 -2.3337912711107522
679 644 -1.010994282577688
679 645 -4.781920758253501E-1
679 646 3.6673244096397237
679 647 2.029082501819095
679 648 3.115177368648003E-1
679 649 -4.421795253668979E-1
679 650 1.0416666666595493
679 651 8.548757454197686E-1
679 652 -4.273162354135822
679 653 -2.5356433281402233
679 655 2.847925759382679E-1
679 656 -1.713043056405505
679 657 1.0912295814572015E-1
679 658 -4.419700678550054E-1
679 659 -1.7467236361805067
679 668 -1.6429899728549024E-2
679 669 -8.223802471572355
679 670 2.5011843000626857
679 671 2.889252315965368
679 675 5.92277115276206E-1
679 676 -4.336926063286793
679 677 -2.128260505762256
679 678 -9.990375039037696E-1
679 679 2.495414858905367E1
679 680 4.122262906331771
679 681 -1.923962439207229E-12
679 682 -8.441096936600129
679 683 -4.3639362864961635
679 711 1.9848341791772045E-1
679 712 8.977997374955156E-1
680 598 -2.8339235113952417
680 642 -1.0416666666880586E-1
680 643 -4.157561873438248E-1
680 644 -1.0508727028568399
680 645 8.441834996361781E-1
680 646 2.0290825018190946
680 647 4.85927653966187
680 648 -7.291666666673845E-1
680 649 5.208333333297758E-1
680 650 -3.396499639265316E-1
680 651 7.681716012567664E-1
680 652 -1.4939766614806724
680 653 -4.207918516992549
680 655 3.417310365354612E-1
680 656 -9.325437085138285E-1
680 657 1.6334626148148113
680 658 4.013424426210649E-2
680 659 -7.366894294420963E-1
680 668 7.651296673452254E-2
680 669 2.5011843000626888
680 670 -1.6187327416152822E1
680 671 8.977997374955149E-1
680 675 2.336385576381315
680 676 -2.128260505762254
680 677 -7.528150145287798
680 678 -1.4848963369088017
680 679 4.122262906331771
680 680 4.125494143852722E1
680 681 -8.481014348063785E-13
680 682 -4.36393628649617
680 683 -2.0076855511954435E1
680 711 -2.0888892545605082
680 712 4.477017175562316
681 458 2.842037187991568
681 459 4.781920758267596E-1
681 460 -8.441834996372122E-1
681 461 -1.4672605015209852
681 462 3.0631704410060745E-1
681 463 5.20833333335463E-1
681 491 -2.8548137789885266
681 492 -8.548757454174514E-1
681 493 -1.393171601250448
681 598 2.0888892545630013
681 655 -6.970383708007549
681 656 1.6429899725645427E-2
681 657 -7.651296673748872E-2
681 658 1.8515527507859662
681 659 -1.9848341791381513E-1
681 668 1.0822812453095773E-1
681 669 -2.847925759352064E-1
681 670 -1.333977032032838E-1
681 671 4.4197006786079346E-1
681 672 -7.465953483703865E-1
681 673 -3.11517736863705E-1
681 674 1.4583333333347615
681 675 -4.599332108887182
681 676 -5.922771152733313E-1
681 677 -2.336385576374909
681 678 -7.700325890593295
681 679 -1.923962439207229E-12
681 680 -8.481014348063785E-13
681 681 2.160292129571159E1
681 682 9.990375038916273E-1
681 683 1.4848963368802814
681 711 -2.0660280226521532
681 712 -7.693009109093178E-1
682 458 4.781920758267604E-1
682 459 3.667324409633137
682 460 2.0290825018139307
682 461 3.063170441006076E-1
682 462 -2.3337912711360866
682 463 -1.0109942825859928
682 491 -8.548757454174513E-1
682 492 -4.27316235408393
682 493 -2.535643328104252
682 598 8.977997374835893E-1
682 655 1.6429899725644376E-2
682 656 -8.223802471605383
682 657 2.5011843000729708
682 658 -1.984834179138152E-1
682 659 2.8892523159210732
682 668 -2.847925759352064E-1
682 669 -1.7130430563784815
682 670 1.0912295814264728E-1
682 671 -1.746723636144261
682 672 -3.115177368637048E-1
682 673 -4.421795253621667E-1
682 674 1.0416666666595524
682 675 -5.922771152733317E-1
682 676 -4.3369260632311954
682 677 -2.1282605057486377
682 678 -1.9234732661795946E-12
682 679 -8.441096936600129
682 680 -4.36393628649617
682 681 9.990375038916273E-1
682 682 2.4954148588987422E1
682 683 4.122262906286768
682 711 4.419700678607935E-1
682 712 -6.622846675244085E-1
683 458 -8.44183499637212E-1
683 459 2.029082501813927
683 460 4.859276539622362
683 461 1.0416666666879773E-1
683 462 -4.1575618734464254E-1
683 463 -1.0508727028538634
683 491 -7.681716012490237E-1
683 492 -1.4939766614447012
683 493 -4.207918516876887
683 598 4.477017175421194
683 655 -7.651296673748777E-2
683 656 2.5011843000729685
683 657 -1.6187327416171197E1
683 658 2.0888892545630013
683 659 8.977997374835882E-1
683 668 -3.417310365380436E-1
683 669 -9.32543708516906E-1
683 670 1.6334626148407372
683 671 -7.366894294359805E-1
683 672 7.291666666673831E-1
683 673 5.20833333329777E-1
683 674 -3.396499639236166E-1
683 675 -2.3363855763749086
683 676 -2.128260505748637
683 677 -7.528150145170358
683 678 -8.48232240642942E-13
683 679 -4.3639362864961635
683 680 -2.0076855511954435E1
683 681 1.4848963368802814
683 682 4.122262906286768
683 683 4.1254941438367645E1
683 711 -4.013424424193973E-2
683 712 -2.8339235113015793
684 598 5.208333333790399E-2
684 599 -4.0833333334684496E-1
684 651 -2.7529761908456674E-1
684 652 3.1249999989368685E-2
684 653 1.5625000001469286E-1
684 654 -2.4791666663001682E-1
684 658 1.7455357142772718
684 659 4.375000000004938E-1
684 663 -3.1770833333127435E-1
684 664 5.468749999929873E-1
684 671 4.1927083333452153E-1
684 684 1.3687351190364211E1
684 685 -4.739583333676983E-1
684 686 9.951636904328461E-1
684 687 9.114583333281089E-2
684 688 4.557291667159193E-1
684 692 -1.0392857142168141
684 693 8.333333331358711E-2
684 707 -6.3883928567631045
684 708 4.687499999640533E-1
684 709 -1.09375000003
684 710 -3.252232142965902
684 711 -7.332217261973914
684 712 1.5494791666697085
684 713 1.8593749999299718
684 714 -4.73958333313112E-1
684 715 -1.276041666647101
685 598 4.727232142830096
685 599 -9.672619047242489E-1
685 651 7.812500000161154E-1
685 652 1.1160714287881582E-1
685 653 1.4970238094537853
685 654 1.0416666666058723
685 658 5.729166666733059E-1
685 659 -7.068452380988055E-1
685 663 2.7715773810424493
685 664 -7.459375000215312
685 671 -2.8366815475848837
685 684 -4.739583333676983E-1
685 685 2.7266458333145387E1
685 686 -6.510416661948132E-2
685 687 4.18526785696801E-1
685 688 3.3612351189445904
685 692 -5.416666666878361E-1
685 693 -3.880357141805234E-1
685 707 -1.0937500000300013
685 708 1.599702380923925
685 709 -1.28991071420885E1
685 710 5.468749999929864E-1
685 711 1.5494791666697092
685 712 -1.808355654781401E1
685 713 -1.2760416666471006
685 714 -1.4322916667399244
685 715 1.9781249999244868
686 599 4.3749999997944944E-1
686 600 -6.406250000014464E-1
686 654 -1.3020833333528464E-2
686 684 9.951636904328461E-1
686 685 -6.510416661948132E-2
686 686 1.3929315476362127E1
686 687 2.1679687504815623E-1
686 688 1.0839843749414773
686 689 1.2559523809640858
686 690 4.166666666669309E-2
686 691 2.083333333723382E-1
686 692 3.608630943426051E-2
686 693 -2.8645833335229953E-1
686 694 3.190104169469812E-2
686 695 -1.1067708332726162E-1
686 704 -7.264415922235964
686 705 1.6341145832132517E-1
686 706 -2.27539062496388
686 707 -7.849578373584354
686 708 -3.307291667189985E-1
686 709 8.203124999188278E-1
686 713 -1.1344246030677025
686 714 1.2500000003834957E-1
686 715 6.250000000302793E-1
687 599 -1.4962797622253524E-1
687 600 -3.859561011827394E-1
687 654 1.3523065475761331
687 684 9.114583333281089E-2
687 685 4.18526785696801E-1
687 686 2.1679687504815623E-1
687 687 1.340654761913694E1
687 688 1.5834263393448713
687 689 -4.166666666634701E-2
687 690 1.5202380952492949
687 691 4.4642857143740866E-1
687 692 4.3749999997944994E-1
687 693 2.790178570937578E-1
687 694 -6.406250000014467E-1
687 695 -7.765997023567467E-1
687 704 5.9244791654985904E-2
687 705 -6.782719493650738
687 706 -3.045944941260301E-1
687 707 -2.4739583338595894E-1
687 708 -7.145411706821471
687 709 3.627232143065991E-1
687 713 1.2500000003834977E-1
687 714 -1.8153769840848863
687 715 -2.008928571396661
688 599 -6.138392857615047E-1
688 600 -1.5950520833087196
688 654 4.185267857153244E-1
688 684 4.557291667159193E-1
688 685 3.3612351189445904
688 686 1.0839843749414773
688 687 1.5834263393448713
688 688 2.7877111235230373E1
688 689 -2.0833333329639603E-1
688 690 4.4642857141973913E-1
688 691 3.663095238126138
688 692 1.3020833331643503E-1
688 693 1.8509300594445202
688 694 -6.315104166626633E-1
688 695 1.5804222470871991
688 704 -2.27539062496388
688 705 5.138578868074193E-1
688 706 -1.6883165921725226E1
688 707 8.203124999188287E-1
688 708 1.2555803571795308
688 709 -1.5225768850110214E1
688 713 6.250000000302791E-1
688 714 -2.0089285713966607
688 715 -6.223859126997382
689 600 2.1874999999936096E-1
689 686 1.2559523809640858
689 687 -4.166666666634701E-2
689 688 -2.0833333329639603E-1
689 689 1.5523065476147346E1
689 690 1.1979166666583632E-1
689 691 5.989583332665955E-1
689 694 2.453869047463837
689 695 4.6874999999266875E-1
689 696 -4.065476190258447
689 704 -1.0161086309881398E1
689 705 3.906249999993553E-2
689 706 8.20312499997087E-1
689 774 7.812499999826639E-3
689 775 3.9062500026041586E-2
689 776 -2.9166666666533203E-1
689 777 -6.24999999989191E-1
689 785 -5.2083333333280274E-2
689 786 -1.0937499999968054
689 799 1.2868303572039752
689 819 -6.293154761639396
690 600 2.075297618895004
690 686 4.166666666669309E-2
690 687 1.5202380952492949
690 688 4.4642857141973913E-1
690 689 1.1979166666583632E-1
690 690 1.6090922618999628E1
690 691 4.334077380934169
690 694 2.18749999999361E-1
690 695 -3.7202380999790896E-2
690 696 -2.9166666666533203E-1
690 704 1.0156249999967634E-1
690 705 -1.0311086309880308E1
690 706 -2.2228422619343586
690 774 1.46897321434605
690 775 4.185267857302787E-1
690 776 -4.751190475968942
690 777 -1.9345238094613155
690 785 -6.093154761640726
690 786 -1.0044642856887214
690 799 -5.468749999991403E-2
690 819 -1.354166666663205E-1
691 600 -8.556547619525886E-1
691 686 2.083333333723382E-1
691 687 4.4642857143740866E-1
691 688 3.663095238126138
691 689 5.989583332665955E-1
691 690 4.334077380934169
691 691 3.689449404751625E1
691 694 7.812499999947373E-1
691 695 6.316369047229001
691 696 -1.041666666657926
691 704 8.203124999970871E-1
691 705 -1.4043898809647435
691 706 -2.5400372024704062E1
691 774 4.1852678571346097E-1
691 775 3.4779017858672483
691 776 -2.827380952320343
691 777 -9.215476189936824
691 785 -1.1160714284736362E-1
691 786 -1.5736011904097737E1
691 799 -2.7343749997602584E-1
691 819 -1.0937499999968054
692 590 -3.005952380585304E-1
692 591 4.375000000001179E-1
692 592 -4.166666666716732E-1
692 598 -1.6382575757013578
692 599 -6.1363636382293835E-2
692 600 -2.0833333309258975E-2
692 601 3.3333333332691817E-1
692 602 -2.48836580103253
692 603 4.7727272727079184E-1
692 604 1.8181818181808604
692 616 -1.5039682540696317
692 617 -5.833333333339512E-1
692 618 8.333333333422025E-1
692 622 -2.4662698411544994
692 623 -5.833333333269184E-1
692 624 -1.2500000000082698
692 654 -4.0833333334684474E-1
692 658 -1.84361471858267
692 659 1.988636363761836E-1
692 671 -5.606060606032474E-1
692 684 -1.0392857142168141
692 685 -5.416666666878361E-1
692 686 3.608630943426051E-2
692 687 4.3749999997944994E-1
692 688 1.3020833331643503E-1
692 692 2.3437959956663885E1
692 693 1.1382575756759954
692 694 -3.375868055544981
692 695 4.947916667054913E-1
692 707 2.5555555556317473
692 708 4.425883270986475E-11
692 709 5.532138636077377E-11
692 711 1.2964015151026511
692 712 2.4526515151557726
692 713 -1.6088293650724868E1
692 714 3.3333333330479376E-1
692 715 -1.458333333365007
692 716 1.7802579365519755
692 717 -1.562499999997935
693 590 -2.083333333397641E-1
693 591 7.440476190047076E-1
693 592 -3.880952380024481E-1
693 598 -1.2827380941027194E-1
693 599 -1.8682359306891427
693 600 -5.022321429182013E-1
693 601 6.696428572387018E-1
693 602 1.8181818181808602
693 603 -2.516233766304734
693 604 -6.084226190880273
693 616 4.1666666667760327E-1
693 617 8.928571429202832E-1
693 618 -1.3873015875421721
693 622 -1.2500000000082703
693 623 -2.6785714285312365
693 624 -5.697817460067382
693 654 -2.2321428568026636E-1
693 658 -8.04924242368024E-1
693 659 1.4204545455723788E-1
693 671 8.049242424103522E-1
693 684 8.333333331358711E-2
693 685 -3.880357141805234E-1
693 686 -2.8645833335229953E-1
693 687 2.790178570937578E-1
693 688 1.8509300594445202
693 692 1.1382575756759954
693 693 4.278491071414572E1
693 694 -3.385416666278423E-1
693 695 -2.6994915674770024
693 707 5.5320484304566264E-11
693 708 1.4285714285568616
693 709 3.4079365079909296
693 711 2.452651515155773
693 712 2.636458333205142
693 713 -1.4583333333650057
693 714 2.827380952341679
693 715 -3.6457638888642755E1
693 716 -1.5624999999979345
693 717 2.550644841416516
694 599 -2.083333330925881E-2
694 600 1.0565476188723608E-1
694 601 -3.333333333297488E-1
694 616 -3.005952380273851E-1
694 617 4.3749999999973943E-1
694 618 -6.250000000056175E-1
694 622 2.3412698399232987E-1
694 623 5.833333333269184E-1
694 624 9.375000000082687E-1
694 686 3.190104169469812E-2
694 687 -6.406250000014467E-1
694 688 -6.315104166626633E-1
694 689 2.453869047463837
694 690 2.18749999999361E-1
694 691 7.812499999947373E-1
694 692 -3.375868055544981
694 693 -3.385416666278423E-1
694 694 2.537089888023631E1
694 695 2.6785714276706135E-1
694 696 -4.278645833130032
694 704 -3.417517006652654
694 705 3.9285714286507567E-1
694 706 -5.357142857268833E-1
694 713 7.22151360524885E-1
694 714 -1.964285714290149E-1
694 715 1.8303571428624987
694 716 -1.716269841263067E1
694 717 -2.0671890125593494E-12
694 718 8.437499999507615E-1
694 745 -1.8237537203124108
694 746 -7.343749999942938E-1
694 756 7.023809524353114E-1
694 757 -2.5000000001090134E-1
694 770 1.1002604166894652
694 776 4.374999999854341E-1
694 777 -2.864583332907565E-1
694 787 1.0899545155318435E-11
694 788 -1.5624999999630331
694 792 -9.37500000043168E-1
695 599 -5.022321429181975E-1
695 600 -3.3163265304432614
695 601 2.4553571426905334
695 616 -3.125000000076853E-1
695 617 8.184523809032086E-1
695 618 -3.8809523792283623E-1
695 622 9.375000000082685E-1
695 623 -2.455357142898393
695 624 1.1746031716153166E-1
695 686 -1.1067708332726162E-1
695 687 -7.765997023567467E-1
695 688 1.5804222470871991
695 689 4.6874999999266875E-1
695 690 -3.7202380999790896E-2
695 691 6.316369047229001
695 692 4.947916667054913E-1
695 693 -2.6994915674770024
695 694 2.6785714276706135E-1
695 695 4.8270423221014674E1
695 696 -1.11979166662409
695 704 -5.357142857268833E-1
695 705 3.507653061216633
695 706 -8.425680271731537
695 713 1.8303571428624987
695 714 1.371173469468637
695 715 6.775722788623834E-1
695 716 -2.0681697095644336E-12
695 717 -3.993799603161327E1
695 718 -1.5624999999630318
695 745 5.794270833581995E-1
695 746 1.111421130968652
695 756 -9.375000000431679E-1
695 757 -2.4553571427762564
695 770 -1.8180896578856163
695 776 9.486607142316477E-1
695 777 -6.126078868545585
695 787 -6.696428570866668E-1
695 788 2.0808035713616553
695 792 3.5238095245939566E-1
696 600 4.3749999998543426E-1
696 601 1.9642857142812678E-1
696 689 -4.065476190258447
696 690 -2.9166666666533203E-1
696 691 -1.041666666657926
696 694 -4.278645833130032
696 695 -1.11979166662409
696 696 2.927372212719915E1
696 703 -1.1344246032640406
696 704 3.6836734691494497
696 705 -6.428571428660648E-1
696 706 7.142857142606519E-1
696 716 7.221513605635318E-1
696 717 1.8303571428517897
696 718 -1.6088293650844907E1
696 745 1.2340029761713238
696 746 4.374999999998047E-1
696 747 1.105505952362388
696 748 -5.250000000002965E-1
696 770 -1.3020833332430146E-1
696 771 3.1249999988766652E-2
696 774 1.6406249999927386E-1
696 775 6.119791666616138E-1
696 776 -2.5297618380142467E-3
696 777 2.3980654760885334
696 778 -8.072916667493897E-2
696 779 -9.765624999862831E-1
696 780 -1.2499999996483338E-1
696 781 6.249999999736972E-1
696 782 4.739583333517171E-1
696 783 -1.2760416666834862
696 785 2.916666666044457E-1
696 786 -2.0833333324412306E-1
696 787 -3.3333333335932175E-1
696 788 -1.4583333333048425
696 799 3.142485118916754
696 803 -5.934895833048294
696 810 1.8593750000654068
696 819 -9.51917989388228
697 660 1.087797618960302
697 661 1.0416666666783186E-2
697 662 -5.208333334671762E-2
697 663 3.906250000024915E-2
697 664 -8.203125000045184E-1
697 671 2.4609375000140887E-1
697 697 1.6484188988147967E1
697 698 -1.6015625000084355E-1
697 699 8.007812500452414E-1
697 700 1.2868303570758424
697 701 5.4687500000144815E-2
697 702 -2.7343750002665684E-1
697 707 -8.758184523438032
697 708 -2.6041666666838752E-2
697 709 5.46875000003134E-1
697 710 -7.696056547809843
697 711 -5.547061012129468
697 712 -6.054687500111815E-1
697 713 3.1424851191932346
697 714 -1.6406250000090372E-1
697 715 4.036458333406989E-1
698 660 5.2083333333677206E-2
698 661 1.1985119046751003
698 662 -3.3482142855262137E-1
698 663 -7.546056547809273
698 664 1.3485863095466808
698 671 -6.371168154991517
698 697 -1.6015625000084355E-1
698 698 1.7249367559581692E1
698 699 -4.673549107164544
698 700 -7.81250000018259E-3
698 701 1.4689732142196803
698 702 -4.1852678571532553E-1
698 707 -6.770833333373287E-2
698 708 -8.858184523438434
698 709 1.8787202380637447
698 710 1.0156250000057633E-1
698 711 2.4609375000140904E-1
698 712 2.4321056548220223
698 713 -1.6406250000090356E-1
698 714 2.8585565477627504
698 715 -2.3251488099995743E-1
699 660 -2.6041666667862756E-1
699 661 -3.3482142856542296E-1
699 662 2.8056547616870846
699 663 3.8132440477236657E-1
699 664 -1.9242485119524364E1
699 671 3.3993675595778132
699 697 8.007812500452414E-1
699 698 -4.673549107164544
699 699 3.9682403273933254E1
699 700 3.9062499971275366E-2
699 701 -4.18526785696802E-1
699 702 3.4779017855468646
699 707 5.468750000031342E-1
699 708 1.134672619032564
699 709 -2.1893898808595246E1
699 710 -8.203125000045175E-1
699 711 -9.179687500091145E-1
699 712 -1.282206101246035E1
699 713 6.119791666726083E-1
699 714 5.115327380440251E-1
699 715 7.992485119412756
700 601 -2.187500000006397E-1
700 697 1.2868303570758424
700 698 -7.81250000018259E-3
700 699 3.9062499971275366E-2
700 700 1.5523065476237212E1
700 701 -1.1979166666744541E-1
700 702 5.989583334018633E-1
700 703 1.255952380940696
700 704 -1.0161086309151427E1
700 705 -3.906250000010653E-2
700 706 8.203125000038078E-1
700 707 -6.293154762183148
700 708 5.208333333338593E-2
700 709 -1.0937500000031977
700 713 -4.065476190693462
700 714 2.916666666680019E-1
700 715 -6.250000000108098E-1
700 716 2.453869047774289
700 717 4.687500000073316E-1
700 780 4.166666666698642E-2
700 781 -2.0833333337027102E-1
701 601 2.0752976192002617
701 697 5.4687500000144815E-2
701 698 1.4689732142196803
701 699 -4.18526785696802E-1
701 700 -1.1979166666744541E-1
701 701 1.6090922619098407E1
701 702 -4.334077380969345
701 703 -4.1666666666640345E-2
701 704 -1.0156250000043378E-1
701 705 -1.0311086309152683E1
701 706 2.222842261872416
701 707 1.3541666666701238E-1
701 708 -6.093154762181818
701 709 1.0044642857398496
701 713 2.916666666680019E-1
701 714 -4.751190476410762
701 715 1.9345238095863206
701 716 -2.1875000000063946E-1
701 717 3.7202380904969856E-2
701 780 1.520238095226915
701 781 -4.4642857143740955E-1
702 601 8.55654761856943E-1
702 697 -2.7343750002665684E-1
702 698 -4.1852678571532553E-1
702 699 3.4779017855468646
702 700 5.989583334018633E-1
702 701 -4.334077380969345
702 702 3.6894494047731364E1
702 703 2.0833333329432827E-1
702 704 8.203125000038072E-1
702 705 1.4043898809389663
702 706 -2.5400372022878E1
702 707 -1.093750000003197
702 708 1.1160714286691897E-1
702 709 -1.5736011905458623E1
702 713 -1.0416666666754089
702 714 2.8273809524415823
702 715 -9.215476191015153
702 716 7.812500000052633E-1
702 717 6.316369048009175
702 780 -4.464285714197399E-1
702 781 3.663095238064381
703 601 6.406249999985535E-1
703 696 -1.1344246032640406
703 700 1.255952380940696
703 701 -4.1666666666640345E-2
703 702 2.0833333329432827E-1
703 703 1.3929315476044811E1
703 704 -7.264415922989816
703 705 -1.6341145834507026E-1
703 706 -2.275390625035447
703 716 3.1901041638646224E-2
703 717 -1.1067708333940363E-1
703 718 3.608630960365554E-2
703 776 -1.2499999996483335E-1
703 777 6.249999999736968E-1
703 780 -2.1679687495592767E-1
703 781 1.083984375058154
703 782 1.3020833333130824E-2
703 783 -6.510416670938002E-2
703 785 3.307291666194272E-1
703 786 8.203125000748036E-1
703 787 -4.3750000001863965E-1
703 788 -2.8645833331675186E-1
703 810 9.951636905164443E-1
703 819 -7.849578372490399
704 600 3.928571428650751E-1
704 601 -3.9285714284921125E-1
704 686 -7.264415922235964
704 687 5.9244791654985904E-2
704 688 -2.27539062496388
704 689 -1.0161086309881398E1
704 690 1.0156249999967634E-1
704 691 8.203124999970871E-1
704 694 -3.417517006652654
704 695 -5.357142857268833E-1
704 696 3.6836734691494497
704 700 -1.0161086309151427E1
704 701 -1.0156250000043378E-1
704 702 8.203125000038072E-1
704 703 -7.264415922989816
704 704 3.1240566539099053E1
704 705 5.863276530959638E-11
704 706 2.3186383928560885
704 707 1.539062499926572
704 708 -3.5677083335047033E-1
704 709 1.171874999967734E-1
704 713 3.6836734696279327
704 714 6.428571428482222E-1
704 715 7.142857143107761E-1
704 716 -3.417517006952846
704 717 -5.357142857016912E-1
704 776 -6.428571428660641E-1
704 777 7.142857142606515E-1
704 780 -5.9244791678144504E-2
704 781 -2.275390625035446
704 785 3.567708333177316E-1
704 786 1.1718750000271717E-1
704 819 1.5390625000610942
705 600 -4.548129251528649
705 601 -4.548129251872779
705 686 1.6341145832132517E-1
705 687 -6.782719493650738
705 688 5.138578868074193E-1
705 689 3.906249999993553E-2
705 690 -1.0311086309880308E1
705 691 -1.4043898809647435
705 694 3.9285714286507567E-1
705 695 3.507653061216633
705 696 -6.428571428660648E-1
705 700 -3.906250000010653E-2
705 701 -1.0311086309152683E1
705 702 1.4043898809389663
705 703 -1.6341145834507026E-1
705 704 5.863276530959638E-11
705 705 3.1617479804403203E1
705 706 2.3187787800985987E-10
705 707 -1.9010416668380334E-1
705 708 1.9515624998923424
705 709 -5.859374999838616E-1
705 713 6.428571428482222E-1
705 714 3.881632653349263
705 715 -5.102040816487314E-1
705 716 -3.9285714284921164E-1
705 717 -3.507653061232392
705 776 3.8816326527777827
705 777 5.102040816165799E-1
705 780 -6.782719494430519
705 781 -5.138578869953337E-1
705 785 1.9515625000930845
705 786 5.859375000135847E-1
705 819 1.9010416665106514E-1
706 600 3.5076530612166303
706 601 -3.50765306123239
706 686 -2.27539062496388
706 687 -3.045944941260301E-1
706 688 -1.6883165921725226E1
706 689 8.20312499997087E-1
706 690 -2.2228422619343586
706 691 -2.5400372024704062E1
706 694 -5.357142857268833E-1
706 695 -8.425680271731537
706 696 7.142857142606519E-1
706 700 8.203125000038078E-1
706 701 2.222842261872416
706 702 -2.5400372022878E1
706 703 -2.275390625035447
706 704 2.3186383928560885
706 705 2.3187787800985987E-10
706 706 7.116786245743928E1
706 707 1.1718749999677222E-1
706 708 -5.859374999838622E-1
706 709 4.764062499844516
706 713 7.142857143107766E-1
706 714 -5.102040816487308E-1
706 715 1.036122449031841E1
706 716 -5.357142857016906E-1
706 717 -8.425680272486272
706 776 5.102040816165812E-1
706 777 1.0361224489275365E1
706 780 3.045944939742806E-1
706 781 -1.6883165923483883E1
706 785 5.859375000135844E-1
706 786 4.76406250013139
706 819 1.1718750000271752E-1
707 599 4.425940169916487E-11
707 654 3.4374999996428046E-1
707 663 -3.4895833334471976E-1
707 664 7.81249999954931E-2
707 671 4.3749999999219297E-1
707 684 -6.3883928567631045
707 685 -1.0937500000300013
707 686 -7.849578373584354
707 687 -2.4739583338595894E-1
707 688 8.203124999188287E-1
707 692 2.5555555556317473
707 693 5.5320484304566264E-11
707 697 -8.758184523438032
707 698 -6.770833333373287E-2
707 699 5.468750000031342E-1
707 700 -6.293154762183148
707 701 1.3541666666701238E-1
707 702 -1.093750000003197
707 704 1.539062499926572
707 705 -1.9010416668380334E-1
707 706 1.1718749999677222E-1
707 707 2.841699735479891E1
707 708 2.2916666681563136E-1
707 709 5.208333334860052E-1
707 710 1.026041666571652
707 711 5.270833333538832
707 712 3.125000000093877E-1
707 713 -9.519179894499064
707 714 -2.9166666673516195E-1
707 715 -2.083333334317434E-1
708 599 1.3365079365446455
708 654 -6.113392856765093
708 663 1.301041666534276
708 664 -3.90624999977469E-1
708 671 5.670833333607018
708 684 4.687499999640533E-1
708 685 1.599702380923925
708 686 -3.307291667189985E-1
708 687 -7.145411706821471
708 688 1.2555803571795308
708 692 4.425883270986475E-11
708 693 1.4285714285568616
708 697 -2.6041666666838752E-2
708 698 -8.858184523438434
708 699 1.134672619032564
708 700 5.208333333338593E-2
708 701 -6.093154762181818
708 702 1.1160714286691897E-1
708 704 -3.5677083335047033E-1
708 705 1.9515624998923424
708 706 -5.859374999838622E-1
708 707 2.2916666681563136E-1
708 708 2.8323346561070235E1
708 709 -1.651785714295963
708 710 -1.8229166667805408E-1
708 711 4.374999999921936E-1
708 712 -1.5625000000469191
708 713 -2.916666667351615E-1
708 714 -1.0373148148441691E1
708 715 -1.3392857142555867
709 599 1.4285714285568614
709 654 8.556547618927446E-1
709 663 -3.906249999774685E-1
709 664 3.176041666456849
709 671 -1.5625000000469194
709 684 -1.09375000003
709 685 -1.28991071420885E1
709 686 8.203124999188278E-1
709 687 3.627232143065991E-1
709 688 -1.5225768850110214E1
709 692 5.532138636077377E-11
709 693 3.4079365079909296
709 697 5.46875000003134E-1
709 698 1.8787202380637447
709 699 -2.1893898808595246E1
709 700 -1.0937500000031977
709 701 1.0044642857398496
709 702 -1.5736011905458623E1
709 704 1.171874999967734E-1
709 705 -5.859374999838616E-1
709 706 4.764062499844516
709 707 5.208333334860052E-1
709 708 -1.651785714295963
709 709 5.744239418012205E1
709 710 7.81249999954938E-2
709 711 3.125000000093861E-1
709 712 1.317083333377188E1
709 713 -2.0833333343174468E-1
709 714 -1.3392857142555872
709 715 -1.6206481481933626E1
710 651 -1.8449280752906458
710 652 2.8255208333207293E-1
710 653 -6.835937499942704E-1
710 654 -2.1354166666493565E-1
710 660 -7.355282737838243
710 661 -3.3854166666866255E-2
710 662 2.734375000015654E-1
710 663 1.6796875001940736E-1
710 664 4.101562500104735E-1
710 665 5.130208332610615E-1
710 666 -3.411458333388609E-1
710 667 3.9062499996904726E-2
710 668 5.270833333423869
710 669 4.374999999933101E-1
710 670 3.1250000000273215E-1
710 671 -2.1874999999664987E-1
710 684 -3.252232142965902
710 685 5.468749999929864E-1
710 697 -7.696056547809843
710 698 1.0156250000057633E-1
710 699 -8.203125000045175E-1
710 707 1.026041666571652
710 708 -1.8229166667805408E-1
710 709 7.81249999954938E-2
710 710 1.859306795642728E1
710 711 -5.254464285779232
710 712 -1.5625000000136857E-1
711 491 2.5729294106401452
711 492 4.012275376842709E-1
711 493 6.550834962332759E-1
711 598 -9.943181818223016E-1
711 599 -5.606060606032468E-1
711 602 7.732345779235863E-1
711 603 -5.170454545471529E-1
711 604 -2.2490530304132872E-1
711 651 -3.113213445803043
711 652 -3.9379591791716406E-1
711 653 -9.970482454462479E-1
711 654 4.1927083333452214E-1
711 658 -1.117261447912984E1
711 659 2.2727272726969738E-1
711 660 3.831101190563883
711 661 -1.0937500000062725E-1
711 662 4.4270833333718135E-1
711 663 -2.187499999966506E-1
711 664 -1.5625000000136885E-1
711 668 -5.381093144500377
711 669 -7.073453181929575E-1
711 670 7.777946166390334E-1
711 671 5.437025052637889E-2
711 678 1.851552750838502
711 679 1.9848341791772045E-1
711 680 -2.0888892545605082
711 681 -2.0660280226521532
711 682 4.419700678607935E-1
711 683 -4.013424424193973E-2
711 684 -7.332217261973914
711 685 1.5494791666697092
711 692 1.2964015151026511
711 693 2.452651515155773
711 697 -5.547061012129468
711 698 2.4609375000140904E-1
711 699 -9.179687500091145E-1
711 707 5.270833333538832
711 708 4.374999999921936E-1
711 709 3.125000000093861E-1
711 710 -5.254464285779232
711 711 3.0205534706964684E1
711 712 1.0391926844105785
711 713 -5.934895833604255
711 714 8.072916667081309E-2
711 715 -1.8098958333321284
712 491 3.070981482490223E-1
712 492 7.164777458441502E-1
712 493 6.179900643772744
712 598 -2.794377055960941E1
712 599 8.049242424103513E-1
712 602 2.9592803029407266E-1
712 603 -3.4327651514729435E-1
712 604 2.749888392830778
712 651 -9.970482454462495E-1
712 652 -2.619841190340797
712 653 -8.24195606089413
712 654 -2.836681547584889
712 658 -9.943181818223017E-1
712 659 4.144423758037723
712 660 3.385416666712264E-1
712 661 -5.022321428884007E-1
712 662 9.66860119069555
712 663 7.81250000006819E-1
712 664 -9.204464285812742
712 668 2.9244663128995374E-1
712 669 1.514591301136265
712 670 -1.0623062713349505E1
712 671 -3.4809022096521756
712 678 -2.0888892545605073
712 679 8.977997374955156E-1
712 680 4.477017175562316
712 681 -7.693009109093178E-1
712 682 -6.622846675244085E-1
712 683 -2.8339235113015793
712 684 1.5494791666697085
712 685 -1.808355654781401E1
712 692 2.4526515151557726
712 693 2.636458333205142
712 697 -6.054687500111815E-1
712 698 2.4321056548220223
712 699 -1.282206101246035E1
712 707 3.125000000093877E-1
712 708 -1.5625000000469191
712 709 1.317083333377188E1
712 710 -1.5625000000136857E-1
712 711 1.0391926844105785
712 712 6.069717895533812E1
712 713 -9.765624999987959E-1
712 714 7.161458334320372E-1
712 715 -9.827083333934793
713 599 3.3333333330479437E-1
713 600 -1.964285714290161E-1
713 601 -4.3749999999749684E-1
713 602 1.1055059523920658
713 603 5.250000000023431E-1
713 604 3.12500000145336E-2
713 622 1.2340029762270652
713 623 -4.375000000036088E-1
713 624 -1.302083333466333E-1
713 654 -4.7395833331311193E-1
713 671 8.072916667081266E-2
713 684 1.8593749999299718
713 685 -1.2760416666471006
713 686 -1.1344246030677025
713 687 1.2500000003834977E-1
713 688 6.250000000302791E-1
713 692 -1.6088293650724868E1
713 693 -1.4583333333650057
713 694 7.22151360524885E-1
713 695 1.8303571428624987
713 697 3.1424851191932346
713 698 -1.6406250000090356E-1
713 699 6.119791666726083E-1
713 700 -4.065476190693462
713 701 2.916666666680019E-1
713 702 -1.0416666666754089
713 704 3.6836734696279327
713 705 6.428571428482222E-1
713 706 7.142857143107766E-1
713 707 -9.519179894499064
713 708 -2.916666667351615E-1
713 709 -2.0833333343174468E-1
713 711 -5.934895833604255
713 712 -9.765624999987959E-1
713 713 2.9273722128276404E1
713 714 2.5297619467747473E-3
713 715 2.3980654762619045
713 716 -4.278645833582215
713 717 -1.1197916666879104
714 599 -1.6926388888793596E1
714 600 2.187457482960883
714 601 -4.292931547872354
714 602 5.250000000023427E-1
714 603 8.712202380785186E-1
714 604 3.199404761616194E-1
714 622 -4.3750000000360867E-1
714 623 4.7686011911912185E-1
714 624 5.580357143965298E-2
714 654 2.134374999949039
714 671 -5.022395833631213
714 684 -4.73958333313112E-1
714 685 -1.4322916667399244
714 686 1.2500000003834957E-1
714 687 -1.8153769840848863
714 688 -2.0089285713966607
714 692 3.3333333330479376E-1
714 693 2.827380952341679
714 694 -1.964285714290149E-1
714 695 1.371173469468637
714 697 -1.6406250000090372E-1
714 698 2.8585565477627504
714 699 5.115327380440251E-1
714 700 2.916666666680019E-1
714 701 -4.751190476410762
714 702 2.8273809524415823
714 704 6.428571428482222E-1
714 705 3.881632653349263
714 706 -5.102040816487308E-1
714 707 -2.9166666673516195E-1
714 708 -1.0373148148441691E1
714 709 -1.3392857142555872
714 711 8.072916667081309E-2
714 712 7.161458334320372E-1
714 713 2.5297619467747473E-3
714 714 3.0771329838014932E1
714 715 -2.389987244934774
714 716 -4.374999999974969E-1
714 717 -9.486607143535565E-1
715 599 2.827380952341681
715 600 1.3711734694686406
715 601 -9.486607143721363E-1
715 602 -5.937499999868897E-1
715 603 1.0639880952241794
715 604 3.4705505952958253
715 622 2.8645833332210036E-1
715 623 9.486607142799522E-1
715 624 3.4484002976723582
715 654 -1.4322916667399257
715 671 7.161458334469987E-1
715 684 -1.276041666647101
715 685 1.9781249999244868
715 686 6.250000000302793E-1
715 687 -2.008928571396661
715 688 -6.223859126997382
715 692 -1.458333333365007
715 693 -3.6457638888642755E1
715 694 1.8303571428624987
715 695 6.775722788623834E-1
715 697 4.036458333406989E-1
715 698 -2.3251488099995743E-1
715 699 7.992485119412756
715 700 -6.250000000108098E-1
715 701 1.9345238095863206
715 702 -9.215476191015153
715 704 7.142857143107761E-1
715 705 -5.102040816487314E-1
715 706 1.036122449031841E1
715 707 -2.083333334317434E-1
715 708 -1.3392857142555867
715 709 -1.6206481481933626E1
715 711 -1.8098958333321284
715 712 -9.827083333934793
715 713 2.3980654762619045
715 714 -2.389987244934774
715 715 5.612826011069302E1
715 716 -2.8645833335457677E-1
715 717 -6.126078869655534
716 599 3.33333333326917E-1
716 600 -3.33333333329746E-1
716 601 5.610119047377887E-1
716 622 -1.3554997519924725
716 623 4.010416666729627E-1
716 624 1.6276041667951185E-1
716 692 1.7802579365519755
716 693 -1.5624999999979345
716 694 -1.716269841263067E1
716 695 -2.0681697095644336E-12
716 696 7.221513605635318E-1
716 700 2.453869047774289
716 701 -2.1875000000063946E-1
716 702 7.812500000052633E-1
716 703 3.1901041638646224E-2
716 704 -3.417517006952846
716 705 -3.9285714284921164E-1
716 706 -5.357142857016906E-1
716 713 -4.278645833582215
716 714 -4.374999999974969E-1
716 715 -2.8645833335457677E-1
716 716 2.3966136975690386E1
716 717 2.678571428677091E-1
716 718 -2.439360119038486
716 756 -3.005952380221417E-1
716 757 -4.3750000000457323E-1
716 776 1.9642857142812556E-1
716 777 1.8303571428517895
716 780 6.406249999985532E-1
716 781 -6.315104166706694E-1
716 787 -3.1249999998267997E-1
716 788 -3.385416666685471E-1
716 792 3.1249999999121186E-1
717 599 6.69642857238699E-1
717 600 2.4553571426905347
717 601 -1.5943877548790304
717 622 -3.580729166558887E-1
717 623 1.3439360118815806
717 624 -1.583169022810106
717 692 -1.562499999997935
717 693 2.550644841416516
717 694 -2.0671890125593494E-12
717 695 -3.993799603161327E1
717 696 1.8303571428517897
717 700 4.687500000073316E-1
717 701 3.7202380904969856E-2
717 702 6.316369048009175
717 703 -1.1067708333940363E-1
717 704 -5.357142857016912E-1
717 705 -3.507653061232392
717 706 -8.425680272486272
717 713 -1.1197916666879104
717 714 -9.486607143535565E-1
717 715 -6.126078869655534
717 716 2.678571428677091E-1
717 717 4.756566131676249E1
717 718 4.9479166666478525E-1
717 756 6.249999999932796E-1
717 757 1.636904761851824
717 776 -1.371173469306866
717 777 6.775722789607113E-1
717 780 7.765997024051644E-1
717 781 1.580422246960447
717 787 5.022321427990711E-1
717 788 -2.229650297582035
717 792 -3.880952379621329E-1
718 600 1.0898351665566963E-11
718 601 -3.124999999826799E-1
718 694 8.437499999507615E-1
718 695 -1.5624999999630318
718 696 -1.6088293650844907E1
718 703 3.608630960365554E-2
718 716 -2.439360119038486
718 717 4.9479166666478525E-1
718 718 2.3437959956786322E1
718 745 -1.5297619046261008
718 746 2.4999999998909855E-1
718 747 -2.4883658008522898
718 748 -4.772727272724817E-1
718 754 -3.005952380223607E-1
718 755 -4.375000000049824E-1
718 756 -2.440476190623232
718 757 9.166666666824742E-1
718 770 -1.2500000000307634
718 771 1.8181818181773275
718 776 -3.3333333335932147E-1
718 777 -1.4583333333048434
718 778 5.606060606066919E-1
718 779 2.4526515151527115
718 780 -4.3750000001863926E-1
718 781 1.3020833334784634E-1
718 782 4.0833333332096755E-1
718 783 -5.416666666469356E-1
718 785 4.01826766305291E-11
718 786 -5.0231874215711514E-11
718 787 6.136363633666313E-2
718 788 1.1382575756767588
718 789 -1.9886363634887233E-1
718 790 -1.6382575757356483
718 791 -4.166666666768014E-1
718 792 8.333333333888256E-1
718 803 1.2964015151416062
718 810 -1.0392857143487422
718 819 2.5555555554839198
718 823 -1.843614718610141
719 625 -4.577801941307733
719 626 -2.719251416958812E-1
719 627 -4.4505526563825093E-1
719 628 1.29856725595569
719 632 -1.427606994177989
719 633 4.441223627626367E-2
719 634 -5.718651863886933
719 636 -1.0098778938649828
719 637 2.444510491442232
719 638 -3.983694171764423
719 719 2.162486398330563E1
719 720 -1.7673890215434724E1
719 729 1.0948944651117365
719 730 2.742224292566826
719 758 -7.067325447445568E-1
719 759 1.9034759922340878
719 760 1.9249106690816709
719 766 1.0587741377472244
719 844 4.538924445020979E-1
719 845 -4.8587065496591897E-1
719 846 1.7105807192579285
720 625 2.8177678119549276
720 632 -2.039438563051686E-1
720 633 -7.802200206470875E-1
720 634 2.0484887726347893
720 636 -4.543370110866253E-2
720 637 -1.076417816374987
720 638 5.142093254856363
720 719 -1.7673890215434724E1
720 720 4.94284642356653E1
720 729 -2.767094408581496E-1
720 730 -1.4587143175015019E1
720 736 1.0839733008009762
720 737 4.659504371553851
720 754 -5.629306970840997E-1
720 755 -2.1437646641308528E-1
720 756 -2.709595213060362
720 757 2.811943013894599
720 758 1.9034759922340887
720 759 3.6489933850869964
720 760 -4.522448886424664
720 766 -2.2355832306519297
720 767 1.761219987608038
720 791 -9.342236956056757
720 792 -1.6147621167581175E1
720 844 -1.3616773333888759
720 845 7.135643457919727E-1
720 846 -5.503063981904649
720 847 -1.9452533333002453E-1
720 848 -5.57075841724501E-1
720 849 1.975404861282012
721 635 -8.608533997688461E-1
721 721 3.6881585291436025E1
721 722 -4.0122045093441766E-1
721 723 -1.147608199724455E1
721 724 1.6568987608372228
721 725 -1.8252692435503648
721 726 -2.491512214411892
721 727 5.556319013125784E-1
721 736 -8.670337598365753
721 737 -2.151763333719495
721 738 2.3271684721645967
721 739 3.3464174287195565
721 740 -2.274778776872595
721 741 -5.749032724728282E-1
721 742 2.1927907916163825E-1
721 743 -1.088800641390468
721 744 3.5808291167943795E-1
721 745 -1.840471037262432
721 746 1.4221479836802537
721 747 5.210167052302537E-1
721 748 2.8049168633054924
721 749 1.4765743341266888
721 750 3.513318129373685E-2
721 751 -1.469178412393899E1
721 752 2.8758223339818284E-1
721 761 2.449445927451132
721 762 2.500454276772062E-1
721 763 -3.31503195675956
721 764 -5.622827097231983E-1
721 765 -1.442002217750468E-1
721 767 -1.5205039061819088
721 768 -2.9075209212782855
721 769 -2.2142237060897862
721 770 3.143048379466572
721 771 1.7630384459209585
721 772 6.705274024948229E-1
721 773 5.859421961325332E-1
721 923 -1.792605236798753
721 924 4.9661823050287775E-2
722 11 3.6628376320466305E-1
722 42 -8.841362246691392E-2
722 43 1.3991851121857857
722 44 -2.429505687060098
722 45 -1.9457317604390876
722 568 -4.032618313563621
722 569 -1.1033843736630555E-1
722 608 4.5964007424579884E-1
722 635 -1.4176982432119318
722 721 -4.0122045093441766E-1
722 722 2.9435387892951226E1
722 723 4.766652512459966
722 724 -3.410179296558849E-1
722 725 -9.345297285985326
722 726 -2.3885252818972784
722 727 -6.315839358443012E-1
722 728 -4.449119992192766E-1
722 736 2.5244906747840177
722 737 -1.336799855542257
722 738 -1.0980346336055566E1
722 739 -2.5281901302995493
722 740 1.3387588374660717
722 761 -6.4439237730537835
722 762 4.493796989303401E-1
722 763 -1.886300750105236
722 764 7.102298580269498E-1
722 767 5.302415368446011
723 11 -5.117065950487509E-2
723 42 1.3991851121857872
723 43 -2.724815024329399
723 44 -1.9457317604390885
723 45 -4.314093097873305
723 568 4.5964007424579745E-1
723 569 -6.699248340350653E-2
723 608 -3.994960241829548E-2
723 635 -1.8863007501052345
723 721 -1.147608199724455E1
723 722 4.766652512459966
723 723 3.554787845219027E1
723 724 1.5978498616248795
723 725 -2.3885252818972784
723 726 -8.450751269499419
723 727 -1.3993630309217977
723 728 -1.2038312903437713
723 736 8.493469615216684
723 737 1.3078514270364816
723 738 -2.5281901302995484
723 739 -1.4176076838259261E1
723 740 -1.3097679871662495
723 761 -4.012204509344184E-1
723 762 7.229630345500113E-1
723 763 -2.859580237782724
723 764 4.024611281288278E-1
723 767 2.524490674784016
724 11 -6.576964971279617E-2
724 42 7.167832807346333E-1
724 43 -8.464528961858749E-1
724 44 -9.753421085507639E-1
724 45 -2.0274951139753616
724 568 8.969874863090141E-1
724 569 -2.7110743557289263E-1
724 608 -1.772643860591287E-1
724 635 1.290704648512031
724 721 1.6568987608372228
724 722 -3.410179296558849E-1
724 723 1.5978498616248795
724 724 3.023919591239891E1
724 725 -1.5625582438593544
724 726 -1.4401445976422156
724 727 -6.553108665965518
724 728 -2.1379693366971777
724 736 1.3078514270364836
724 737 3.798120171766349
724 738 1.3387588374660724
724 739 -1.3097679871662478
724 740 -1.797908770682137E1
724 761 -2.7516115413491915E-2
724 762 -6.306545220221983
724 763 1.238524931530243
724 764 -7.237280691735193E-1
724 767 -1.3367998555422569
725 22 5.214756864529006
725 23 1.7194598204036476E-1
725 39 7.696376126845852E-1
725 40 -7.556100574781832E-2
725 41 -8.62049528830106E-1
725 44 -1.56166799505725E1
725 45 -7.401989696824132E-1
725 48 2.260914781771037
725 721 -1.8252692435503648
725 722 -9.345297285985326
725 723 -2.3885252818972784
725 724 -1.5625582438593544
725 725 4.008093232226566E1
725 726 3.1136495817729397
725 727 1.2399186166721308
725 728 8.673303679087228E-1
725 736 -3.5561099334892343E-1
725 737 -1.697536494833965E-2
725 738 1.4878843698308093
725 739 6.165939751150775E-1
725 740 2.3446406776591155
725 761 -8.697030402200103E-1
725 762 -5.425669541311104E-1
725 765 -3.2177148579876463E-1
725 767 -7.666831660396174
725 917 -8.535351513721362E-1
725 918 -1.6259740293053628
725 919 5.417690228930059E-1
725 920 -6.05240944043076
725 921 2.2972266336197014
725 922 -5.640387762175547E-2
725 923 1.3493900303539603
725 924 4.741249431773492E-1
725 932 -2.5991756409600226
725 959 -6.8269831545343855
725 960 -2.6266354791005533
726 22 2.260914781771037
726 23 -4.008557125346648
726 39 -7.556100574781854E-2
726 40 -2.79391762766899
726 41 -2.4794623988522357E-1
726 44 -7.401989696824123E-1
726 45 -2.029001419649882E1
726 48 4.479515479509303
726 721 -2.491512214411892
726 722 -2.3885252818972784
726 723 -8.450751269499419
726 724 -1.4401445976422156
726 725 3.1136495817729397
726 726 4.813478737091342E1
726 727 -2.3339261473416038
726 728 3.8703902612918437
726 736 -1.2667251732340851E1
726 737 4.793219312208764
726 738 6.165939751150764E-1
726 739 6.567405254488254
726 740 1.2362935665372445
726 761 -1.8252692435503637
726 762 -3.046409728650833E-1
726 765 1.3493900303539588
726 767 -3.556109933489217E-1
726 917 -1.6259740293053626
726 918 2.490383577001718E-1
726 919 9.196494665315774E-1
726 920 2.297226633619701
726 921 -3.3269160857296467
726 922 5.312286644884928E-2
726 923 -3.274888763136306
726 924 -4.3822224619560224E-1
726 932 -2.0992381437419025
726 959 -2.6266354791005533
726 960 -6.135494573325242
727 22 1.7194598204036515E-1
727 23 1.7383380579321135
727 39 -8.487768707253796E-1
727 40 -1.242416687000267
727 41 1.1702770185856566
727 44 1.4989841225444538
727 45 3.1878824440829643
727 48 -4.00855712534665
727 721 5.556319013125784E-1
727 722 -6.315839358443012E-1
727 723 -1.3993630309217977
727 724 -6.553108665965518
727 725 1.2399186166721308
727 726 -2.3339261473416038
727 727 4.146933779319148E1
727 728 -1.6021463303814635E1
727 736 4.793219312208766
727 737 -1.5647031097687135E1
727 738 2.344640677659114
727 739 1.2362935665372434
727 740 4.5864823705237
727 761 1.0509272146493776E-2
727 762 1.6482914309028412E-1
727 765 1.1901670049781643E-1
727 767 -1.6975364948338123E-2
727 917 -2.4375908130971646E-1
727 918 3.5691014875060056E-1
727 919 1.130418763226408
727 920 -1.0447444777726145
727 921 4.1945332191249596E-1
727 922 -2.2851766186825833
727 923 5.341104395475734E-1
727 924 1.0790914888952463E-1
727 932 -9.860812609289288
727 959 -2.5991756409600244
727 960 -2.0992381437419034
728 11 -3.0607678738107107
728 22 2.386548069229604E-1
728 23 -1.6213626668176744E1
728 33 2.792907212792404E-1
728 34 -3.7537019109449626E-1
728 35 -7.249620643521237E-1
728 39 3.904135401040424E-1
728 40 -5.625591654692833E-1
728 41 -7.9687097654914485
728 42 -3.923350439060179E-1
728 43 2.020395933218614E-1
728 44 -6.077131104644682E-1
728 45 -1.903907822377004
728 48 -1.5048228631168081
728 722 -4.449119992192766E-1
728 723 -1.2038312903437713
728 724 -2.1379693366971777
728 725 8.673303679087228E-1
728 726 3.8703902612918437
728 727 -1.6021463303814635E1
728 728 3.965372637968079E1
728 738 2.0677007202538427
728 739 2.2664049860296163
728 740 8.552718192019096E-1
728 932 5.618500813460135
728 959 -2.398430002879043
728 960 -7.883435082419583E-1
729 625 2.022571773878506E-1
729 636 -8.763318392347309E-1
729 637 -3.379316345836315
729 638 5.608817156920674E-1
729 719 1.0948944651117365
729 720 -2.767094408581496E-1
729 729 3.686674418251665E1
729 730 -2.63648097079852E-1
729 731 -3.6993013495227867E-1
729 732 -1.1381289081580368E1
729 733 -1.6249074175460474
729 734 -5.672367503010852E-1
729 736 -8.623703917459943
729 737 2.1500322737967648
729 738 2.3101234508350976
729 739 3.2724334733496527
729 740 2.281095107049149
729 754 5.269663549520537E-1
729 755 2.884221165539304
729 756 -1.8217557237467346
729 757 1.3521827870886316
729 758 -5.756743419284592E-1
729 759 1.7361126210144393E-3
729 760 -1.4778310236219607E1
729 766 2.4707487983328256
729 767 -1.5208115704841396
729 791 -1.7499792576320847
729 792 -3.173237707580136
729 844 3.58404965920813E-1
729 845 -2.8986800114355478
729 846 2.210771794834705
729 847 1.4773228399010316
729 848 7.10925397348171E-1
729 849 -5.862392221340343E-1
729 856 -1.6166315165993767E-1
729 857 -1.7770787945661932
729 858 -5.571746335303464E-2
729 954 -1.8191357605565546
729 955 -2.450385796132289
730 625 2.0478393381816284E-1
730 636 4.791593360036132E-1
730 637 5.906098280730422E-1
730 638 -4.374401052651218
730 719 2.742224292566826
730 720 -1.4587143175015019E1
730 729 -2.63648097079852E-1
730 730 3.618573484975209E1
730 731 -4.667973416685311E-1
730 732 -6.93571168518754E-1
730 733 -6.263372058116234
730 734 2.1088375299243034E-1
730 736 2.1500322737967656
730 737 -1.4677513003999275E1
730 738 -2.1843644894756276
730 739 2.2810951070491496
730 740 8.006003587735973E-1
730 754 3.1787973039217854
730 755 -1.7499792576320856
730 756 -2.631965302487064
730 757 -3.1732377075801352
730 758 5.149238542566463E-1
730 759 -2.2355832306519305
730 760 -2.767094408581504E-1
730 766 3.553280545053401E-1
730 767 2.44673441464797
730 791 3.1325909118963087
730 792 -7.668281894447652E-1
730 844 -4.432782947226641E-1
730 845 1.3187221866361285
730 846 -3.4706056997636994
730 847 -4.342988312891316E-2
730 848 -5.862392221340326E-1
730 849 3.51818940746129
730 856 4.7643443917502415E-1
730 857 -9.694318108675597E-2
730 858 -2.450360394452331
730 954 5.540411396243528E-1
730 955 2.9508474551651587E-1
731 19 -1.0806873328014993E-1
731 20 1.405341773725997
731 21 -3.69421015256446E-1
731 570 -4.085612898080456
731 571 4.5926811646388055E-1
731 572 9.072493624977895E-2
731 636 -1.4112153472558688
731 637 -1.8908325504411838
731 638 -7.045848485474634E-1
731 729 -3.6993013495227867E-1
731 730 -4.667973416685311E-1
731 731 2.9411222867235793E1
731 732 4.697989630297958
731 733 4.02641552906036E-1
731 734 5.999587444503827E-1
731 735 4.454956629690974E-1
731 736 2.4951390230914816
731 737 1.3566826878941887
731 738 -1.0908003356089422E1
731 739 -2.491493265443646
731 740 -1.354700378997044
731 766 -6.3943504947035334
731 767 5.256084671936624
731 954 -9.358907625221732
731 955 -2.3648174674774314
731 957 -2.4011490845412493
731 958 -1.9406651252647762
732 19 1.4053417737259983
732 20 -2.750459489615293
732 21 7.165020453814192E-2
732 570 4.592681164638822E-1
732 571 -6.757241490009486E-2
732 572 6.547115870749107E-2
732 636 -1.8908325504411865
732 637 -2.8386029844191607
732 638 -4.005464641499049E-1
732 729 -1.1381289081580368E1
732 730 -6.93571168518754E-1
732 731 4.697989630297958
732 732 3.5384993747736125E1
732 733 -1.6322644679778102
732 734 1.392417440597609
732 735 1.1987580632777948
732 736 8.407789195133542
732 737 -1.3104569783066409
732 738 -2.4914932654436432
732 739 -1.4055102784835563E1
732 740 1.3085422118320733
732 766 -3.699301349522779E-1
732 767 2.495139023091479
732 954 -2.3648174674774287
732 955 -8.418883795539752
732 957 -1.940665125264778
732 958 -4.280872391979435
733 19 -7.218245165597582E-1
733 20 8.686689731705088E-1
733 21 -9.387654153905611E-2
733 570 -9.191436199096601E-1
733 571 1.756723741864854E-1
733 572 -3.04719380651548E-1
733 636 -1.2866043096819715
733 637 -1.2324424578956694
733 638 -7.200737825939718E-1
733 729 -1.6249074175460474
733 730 -6.263372058116234
733 731 4.02641552906036E-1
733 732 -1.6322644679778102
733 733 3.0208982905581305E1
733 734 -6.559509153150927
733 735 -2.1239992062196165
733 736 -1.310456978306643
733 737 3.8077488639273094
733 738 -1.3547003789970455
733 739 1.3085422118320715
733 740 -1.7951181647237263E1
733 766 1.5489901137042406E-2
733 767 1.3566826878941873
733 954 1.5343817068882029
733 955 1.4272946657110106
733 957 9.730769763229646E-1
733 958 2.019893096826094
734 17 9.613288426660183E-1
734 18 1.2347577439696633
734 22 -1.8636035061777992E-1
734 23 1.8693267204430042
734 47 1.2778422399685787
734 48 4.013989779080034
734 729 -5.672367503010852E-1
734 730 2.1088375299243034E-1
734 731 5.999587444503827E-1
734 732 1.392417440597609
734 733 -6.559509153150927
734 734 4.204439077837814E1
734 735 -1.673966347616309E1
734 736 -4.886707144728609
734 737 -1.569926512423614E1
734 738 -2.348804272997593
734 739 -1.2460080032037402
734 740 4.517400004625358
734 766 -1.7121688782575362E-3
734 767 -1.2389655121747882E-1
734 853 1.0294101415258197
734 854 -3.7623245965035446E-1
734 855 -2.3601424512884197
734 856 -1.2742266557779544E-1
734 857 -5.091897912841785E-1
734 858 1.3613518896422755E-1
734 932 -9.55096366735716
734 951 2.1616938039337502E-1
734 952 -3.6217514306803067E-1
734 953 8.966496828229116E-1
734 954 -8.064571984980693E-1
734 955 2.387203826037585
734 957 -1.77321682485319
734 958 -3.166602879866514
734 959 2.5610029236045704
734 960 2.0426988864187043
735 12 -3.000563490581145E-1
735 13 3.556916528863908E-1
735 14 -7.301539302329132E-1
735 17 -3.8083484859439387E-1
735 18 -7.547693517497627
735 19 3.549814085464174E-1
735 20 -1.997713917437201E-1
735 21 -3.0031188704657845
735 22 -4.903071305787553E-1
735 23 -1.6769508327864287E1
735 47 6.425731835529013E-1
735 48 1.5093674830266401
735 731 4.454956629690974E-1
735 732 1.1987580632777948
735 733 -2.1239992062196165
735 734 -1.673966347616309E1
735 735 4.048076841310036E1
735 738 -2.0598143810815817
735 739 -2.2576985856624314
735 740 8.879767793400059E-1
735 932 5.545392136002956
735 954 -1.1056088628000271
735 955 -3.855092872778264
735 957 1.0805587305468192
735 958 1.882069661109047
735 959 2.4555857700505377
735 960 7.241028063316415E-1
736 22 1.6257742396071457
736 23 3.979102152366665E-2
736 48 -2.2494588200568204
736 720 1.0839733008009762
736 721 -8.670337598365753
736 722 2.5244906747840177
736 723 8.493469615216684
736 724 1.3078514270364836
736 725 -3.5561099334892343E-1
736 726 -1.2667251732340851E1
736 727 4.793219312208766
736 729 -8.623703917459943
736 730 2.1500322737967656
736 731 2.4951390230914816
736 732 8.407789195133542
736 733 -1.310456978306643
736 734 -4.886707144728609
736 736 8.175148617536283E1
736 737 3.614488299039029E-2
736 738 -5.979947279352843E-1
736 739 -1.5239985569356445E1
736 740 1.102521850530708E-2
736 745 -1.6925908141558073
736 746 -1.0323931406315887
736 747 5.52770354083665E-1
736 748 -1.0046891576328216E1
736 750 -1.2426438823358221
736 751 3.430053845182425
736 752 -1.0900977111445116
736 754 5.486939837655143E-1
736 755 -1.0100142596190803E1
736 756 -1.7083840019610184
736 757 -1.7541965217518847
736 759 -1.2200757514098586
736 760 3.4515180758474697
736 761 -1.5205039061819092
736 762 -2.151763333719496
736 765 -9.676181199365583E-2
736 766 -1.520811570484141
736 767 4.386811020936433
736 770 -1.0149595990439613
736 771 -3.3257507431730664
736 791 3.331105051026369
736 792 1.005306109558
736 836 -3.525446316301157
736 837 -6.076682621723859E-1
736 838 -2.8596817470025826
736 839 5.799360071965536E-1
736 853 -1.2202338599111575
736 854 2.8468941089867354
736 855 -1.2631670232159755
736 856 -9.604612138366883E-2
736 857 -6.234692223830161
736 858 3.96285369911304
736 859 1.3937109496229922
736 860 3.4574684102399242
736 861 -1.3242587664907246E-1
736 875 1.891408451824127
736 877 1.9063736572902292
736 920 -1.103279417614906
736 921 2.9048146324977977
736 922 1.2210528577784356
736 923 -6.2020394649074975
736 924 -3.9465338572630486
736 925 1.4001745638670362
736 926 3.5995870639807324
736 927 1.7973662927819986E-1
736 932 2.7502738603816957E-2
736 954 -4.533374252723916E-1
736 955 -1.3051687152915308E1
736 959 -5.897072634884099
736 960 -1.608517274500911E1
737 22 2.7039602043312544E-2
737 23 5.07639671527483
737 48 3.9791021523665676E-2
737 720 4.659504371553851
737 721 -2.151763333719495
737 722 -1.336799855542257
737 723 1.3078514270364816
737 724 3.798120171766349
737 725 -1.697536494833965E-2
737 726 4.793219312208764
737 727 -1.5647031097687135E1
737 729 2.1500322737967648
737 730 -1.4677513003999275E1
737 731 1.3566826878941887
737 732 -1.3104569783066409
737 733 3.8077488639273094
737 734 -1.569926512423614E1
737 736 3.614488299039029E-2
737 737 8.773788668750296E1
737 738 -4.6824134039940124E-2
737 739 1.1025218505307107E-2
737 740 -1.0757442697518387E1
737 745 -1.6970018055711904
737 746 -1.0149595990439608
737 747 9.264712108347912E-1
737 748 -3.325750743173066
737 750 -1.6996880688397509
737 751 -1.0900977111445118
737 752 4.5716847564533545
737 754 -9.692319304892805E-1
737 755 3.3311050510263684
737 756 1.6732141009747912
737 757 1.0053061095579998
737 759 1.7612199876080363
737 760 1.0839733008009773
737 761 -2.474836946327167
737 762 -1.4692415729101782E1
737 765 -1.9234275522430644E-1
737 766 2.4467344146479717
737 767 1.6123965100474152E-1
737 770 1.8478735076112085E-1
737 771 -6.172535326690725
737 791 -6.2686589314075105
737 792 -9.486490850449952E-2
737 836 -6.076682621723859E-1
737 837 -1.8705899407119277
737 838 5.799360071965525E-1
737 839 -1.5806287801868542
737 853 -2.5524901911753934
737 854 -1.2631670232159755
737 855 1.5291234606919157
737 856 1.9199466158041867E-1
737 857 3.9628536991130403
737 858 -1.2327386427326049E1
737 859 -2.522785767165708
737 860 -1.3242587664907185E-1
737 861 4.0904565126802686
737 875 8.207300358137322E-1
737 877 -8.650353536366682E-1
737 920 2.5454708788230263
737 921 1.2210528577784359
737 922 1.6204393113221502
737 923 -3.9465338572630486
737 924 -1.2237431161346194E1
737 925 2.5902297702000316
737 926 1.797366292781994E-1
737 927 4.3191589281416585
737 932 -9.369544001359273
737 954 -1.2389655121747739E-1
737 955 -4.886707144728608
737 959 -3.1182772475630977E-3
737 960 2.750273860381689E-2
738 11 -1.161437009458283
738 19 -5.484212242681565E-1
738 20 1.251420203917144
738 21 1.1713326141277363
738 22 -1.4866453145471773E1
738 23 9.4024451772854E-3
738 42 -5.071531886964733E-1
738 43 1.175578660371338
738 44 1.783170826884726
738 45 -4.2573820060692985E-1
738 48 -5.45772379095572
738 568 -3.6409723193774126
738 569 -3.9209330038167436
738 570 -3.734619760652212
738 571 -9.91148521670785E-2
738 572 3.9573219083617595
738 583 -1.0904608184652568E1
738 584 5.059755634039542
738 585 -4.588265039967998E-2
738 608 -1.2529845942162113E-1
738 635 -4.5106120235668945E-1
738 636 -4.2012542181899437E-1
738 637 -1.121679912034355
738 638 2.8525111584154708
738 639 -1.6132881937088097E1
738 640 -6.062124888189019
738 641 -1.9505102440835587E-2
738 721 2.3271684721645967
738 722 -1.0980346336055566E1
738 723 -2.5281901302995484
738 724 1.3387588374660724
738 725 1.4878843698308093
738 726 6.165939751150764E-1
738 727 2.344640677659114
738 728 2.0677007202538427
738 729 2.3101234508350976
738 730 -2.1843644894756276
738 731 -1.0908003356089422E1
738 732 -2.4914932654436432
738 733 -1.3547003789970455
738 734 -2.348804272997593
738 735 -2.0598143810815817
738 736 -5.979947279352843E-1
738 737 -4.6824134039940124E-2
738 738 7.798872133145356E1
738 739 6.688292830618544
738 740 4.7984965353335615E-2
738 745 1.8199130849488054
738 746 2.102521758200437E-1
738 756 1.830780700360275
738 757 2.101192076581416E-1
738 761 2.929534037343261
738 762 2.184140972886323
738 763 -1.1237905869153904
738 764 -2.8452683271865955
738 766 2.8773993924693135
738 767 -2.0879472727197935E1
738 770 1.0049192127994604E-1
738 792 -8.675247108695872E-2
738 954 1.4372117388076386
738 955 6.063138772499581E-1
738 957 1.8195033216269132
738 958 -4.2246967382088885E-1
739 11 3.6212994209316847
739 19 1.2514202039171436
739 20 -3.16156421204193
739 21 -3.618035420659347
739 22 -5.4577237909557175
739 23 1.9083946422367843E-2
739 42 1.1755786603713378
739 43 -3.0814744298815437
739 44 -4.257382006069299E-1
739 45 9.828111292572947E-1
739 48 -2.1956824094475806E1
739 568 -1.252984594216206E-1
739 569 -1.2792284986167357E-1
739 570 -9.911485216707888E-2
739 571 -4.2488450836588054E-1
739 572 8.589934834341548E-2
739 583 5.059755634039541
739 584 -6.9052745688756625
739 585 3.8220637045234804E-2
739 608 -4.601182813831921E-1
739 635 -1.1237905869153897
739 636 -1.1216799120343546
739 637 -1.9533767749630162
739 638 3.1859253173075786
739 639 -6.06212488818902
739 640 -9.011160552936232
739 641 -6.116783515721647E-3
739 721 3.3464174287195565
739 722 -2.5281901302995493
739 723 -1.4176076838259261E1
739 724 -1.3097679871662478
739 725 6.165939751150775E-1
739 726 6.567405254488254
739 727 1.2362935665372434
739 728 2.2664049860296163
739 729 3.2724334733496527
739 730 2.2810951070491496
739 731 -2.491493265443646
739 732 -1.4055102784835563E1
739 733 1.3085422118320715
739 734 -1.2460080032037402
739 735 -2.2576985856624314
739 736 -1.5239985569356445E1
739 737 1.1025218505307107E-2
739 738 6.688292830618544
739 739 7.667885348094504E1
739 740 -1.6254193789692645E-2
739 745 2.102521758200438E-1
739 746 -2.976623829637413
739 756 2.1011920765814268E-1
739 757 -2.9625773877212933
739 761 2.3271684721645967
739 762 -2.274778776872596
739 763 -1.9852379313973427
739 764 -3.2044302901604778
739 766 2.3101234508350985
739 767 -5.97994727935284E-1
739 770 -1.6347992179308766
739 792 1.6420223488191361
739 954 6.063138772499579E-1
739 955 6.488483854997341
739 957 -4.2246967382088807E-1
739 958 1.013877142373433
740 11 -2.590786601549048
740 19 1.1713326141277371
740 20 -3.618035420659348
740 21 -2.554857031506309
740 22 9.40244517728494E-3
740 23 -1.1117732595972463E1
740 42 -1.161437009458285
740 43 3.6212994209316864
740 44 2.0677007202538435
740 45 2.2664049860296167
740 48 1.9083946422367028E-2
740 568 -3.920933003816743
740 569 -5.038542433795651
740 570 3.9573219083617603
740 571 8.589934834341653E-2
740 572 -4.966975739626006
740 583 -4.588265039968E-2
740 584 3.8220637045234714E-2
740 585 -3.130139999817186
740 608 -1.2792284986167338E-1
740 635 -2.845268327186594
740 636 2.852511158415469
740 637 3.185925317307576
740 638 -3.896521809682954
740 639 -1.9505102440833977E-2
740 640 -6.116783515721008E-3
740 641 -4.86111503897725
740 721 -2.274778776872595
740 722 1.3387588374660717
740 723 -1.3097679871662495
740 724 -1.797908770682137E1
740 725 2.3446406776591155
740 726 1.2362935665372445
740 727 4.5864823705237
740 728 8.552718192019096E-1
740 729 2.281095107049149
740 730 8.006003587735973E-1
740 731 -1.354700378997044
740 732 1.3085422118320733
740 733 -1.7951181647237263E1
740 734 4.517400004625358
740 735 8.879767793400059E-1
740 736 1.102521850530708E-2
740 737 -1.0757442697518387E1
740 738 4.7984965353335615E-2
740 739 -1.6254193789692645E-2
740 740 7.339438310763937E1
740 745 1.0049192127994583E-1
740 746 -1.634799217930875
740 756 -8.675247108696027E-2
740 757 1.6420223488191357
740 761 2.1841409728863237
740 762 9.009371725996691E-1
740 763 -3.2044302901604773
740 764 -3.949355733793619
740 766 -2.184364489475628
740 767 -4.682413403994057E-2
740 770 1.4235621530456761
740 792 1.4271252705482267
740 954 -2.3488042729975924
740 955 -1.246008003203742
740 957 -2.0598143810815825
740 958 -2.257698585662431
741 589 -3.5669318427577057E-1
741 614 -1.1712185846221274E-1
741 615 -2.714081734978678E-1
741 619 -1.9041773829415167
741 620 1.4248929111078152
741 635 -2.152224475390801
741 721 -5.749032724728282E-1
741 741 1.112200355014037E1
741 742 1.334253933431618E-1
741 743 7.043414070057612E-1
741 744 6.2383839067056995E-2
741 750 -7.589006274762141
741 751 -3.723739528188448E-1
741 752 -1.8998572148116066
741 753 2.7928046461395956E-1
741 761 8.177139281628039E-1
741 762 -5.15307637510512E-1
741 763 5.494478740688883E-1
741 764 4.924909971442103E-1
741 768 1.0224535172787634E-1
741 769 6.48477105622004E-2
742 589 1.328781415369179E-1
742 614 5.327722244588855E-1
742 615 4.4955481806082753E-1
742 619 4.6678046461319167E-1
742 620 -8.72067556816344E-1
742 635 5.49447874068889E-1
742 721 2.1927907916163825E-1
742 741 1.334253933431618E-1
742 742 1.1723729615721627E1
742 743 4.578055034792472
742 744 -8.525464827135533E-2
742 750 -6.223739528179763E-1
742 751 -7.829286006610947
742 752 -2.8054972258471635
742 753 -1.7239675840550257
742 761 -5.749032724728284E-1
742 762 -2.0219599181466397E-1
742 763 -3.6363625159286923
742 764 -1.5559515450867143
742 768 7.138351872525159E-1
742 769 4.0810246671158645E-1
743 589 2.714081735963155E-1
743 614 4.4330232479518505E-1
743 615 1.2965703185892212
743 619 1.4248929111078166
743 620 -5.71009542823851
743 635 1.0112726813010628
743 721 -1.088800641390468
743 741 7.043414070057612E-1
743 742 4.578055034792472
743 743 2.165831016057873E1
743 744 -4.539339735946532E-1
743 750 -1.8998572148116062
743 751 -1.9126400830057175
743 752 -1.7706313059058278E1
743 753 -5.361517584680797E-2
743 761 -1.0581239846046955
743 762 2.7467025916260384
743 763 -2.4577984781337157
743 764 -3.9958019448388575
743 768 4.914970187890517E-1
743 769 1.7106273613416607
744 721 3.5808291167943795E-1
744 741 6.2383839067056995E-2
744 742 -8.525464827135533E-2
744 743 -4.539339735946532E-1
744 744 1.3639064196587874E1
744 749 -1.1327136032223507E1
744 750 -1.8708171770210094
744 751 2.159182160893223E-1
744 752 1.3618019208960663
744 761 -1.788260769459375
744 762 4.4268605896775254E-1
744 765 8.571599816969012E-1
744 768 1.632765976451406E-1
744 769 1.2946279249857469
744 772 -3.2387732413408515E-1
744 773 -2.0427028813447405
744 874 4.2760596135205997E-1
744 901 6.319937552306533E-2
744 902 -1.1867201250275808E-1
744 923 -3.913451285315261E-1
744 924 -4.8380703740741426E-1
745 600 -7.343749999942938E-1
745 616 -1.9767900444446627
745 617 -6.838286400246959E-1
745 618 -1.8521115057998232
745 619 -8.696199323762986
745 620 -3.177613974373547
745 622 3.8416189650487187E-1
745 623 -2.5000000000936834E-1
745 624 3.287556345017069
745 635 -1.590428894380268E-1
745 639 -3.4494287892115416
745 640 1.502634105242768
745 641 1.6708761481849508
745 694 -1.8237537203124108
745 695 5.794270833581995E-1
745 696 1.2340029761713238
745 718 -1.5297619046261008
745 721 -1.840471037262432
745 736 -1.6925908141558073
745 737 -1.6970018055711904
745 738 1.8199130849488054
745 739 2.102521758200438E-1
745 740 1.0049192127994583E-1
745 745 6.440120241563147E1
745 746 2.9758985422632417E-1
745 747 -3.2023956460276652
745 748 8.772941631134608E-1
745 750 -1.1597271572012467E1
745 751 2.1202560591405875
745 752 2.686842131528868
745 753 -2.054853517040183
745 756 -3.4246786727573436E1
745 757 1.1123436708912453E-2
745 761 2.3267259346119094
745 762 2.6445221066127074
745 763 1.5494692142457818
745 764 -2.719449529410947
745 767 -3.4845756904590868
745 770 2.510598487639374
745 771 -1.042996699581832
745 776 4.374999999998046E-1
745 777 2.8645833334029813E-1
745 787 2.499999999890981E-1
745 788 -1.2500000000307647
745 792 -2.027599042193306
746 600 -2.8916108631466044
746 616 -4.3382864002382643E-1
746 617 6.22067760855011E-2
746 618 -1.083687123852556
746 619 -1.7423535170394135
746 620 -1.4123663940553806
746 622 -2.500000000093691E-1
746 623 9.604047419758628E-1
746 624 9.768980572368304E-1
746 635 1.54946921424578
746 639 1.5026341052427659
746 640 -7.612627892470546E-1
746 641 -3.205670145301861E-1
746 694 -7.343749999942938E-1
746 695 1.111421130968652
746 696 4.374999999998047E-1
746 718 2.4999999998909855E-1
746 721 1.4221479836802537
746 736 -1.0323931406315887
746 737 -1.0149595990439608
746 738 2.102521758200437E-1
746 739 -2.976623829637413
746 740 -1.634799217930875
746 745 2.9758985422632417E-1
746 746 6.053332638474678E1
746 747 5.647941631126925E-1
746 748 -9.817684952174374E-1
746 750 1.8702560591397193
746 751 -1.0912611968225331E1
746 752 -2.8137303320324607
746 753 -7.3139669223670625
746 756 1.112343670891263E-2
746 757 -3.459453615287876E1
746 761 -1.8404710372624313
746 762 3.1430483794665705
746 763 -2.889813680700378E-1
746 764 1.969093000585593
746 767 -1.692590814155807
746 770 -3.467494808681296E-1
746 771 -2.633916941985313E-1
746 776 4.768601190243019E-1
746 777 -9.486607143008424E-1
746 787 -1.7011904760914016
746 788 2.6785714285506748
746 792 -4.0120425995397835E-2
747 696 1.105505952362388
747 718 -2.4883658008522898
747 721 5.210167052302537E-1
747 736 5.52770354083665E-1
747 737 9.264712108347912E-1
747 745 -3.2023956460276652
747 746 5.647941631126925E-1
747 747 4.567189932748816E1
747 748 -1.2836058936064831
747 749 -4.732543315435791
747 750 -1.096581737890956E1
747 751 2.2355556919559305E-1
747 752 4.6220623772121294E-1
747 754 -1.4905741527588342E1
747 755 -2.5000000000347034E-1
747 756 3.856186784570652E-1
747 757 2.500000000034706E-1
747 761 5.220019956490594
747 762 -3.121898543972053
747 765 8.637451156500152E-1
747 767 -7.292090626324931
747 770 -1.5638300329130972
747 771 1.959190978324587
747 772 1.0451986968673377
747 773 1.1840653951528024
747 776 -5.250000000002966E-1
747 777 -5.93750000009811E-1
747 778 5.170454545455947E-1
747 779 2.95928030310144E-1
747 787 -4.7727272727248143E-1
747 788 1.8181818181773277
747 789 4.772727272724812E-1
747 790 -2.130681818179265
747 791 -2.642435643411251
747 792 2.9549356434131857
747 803 7.732345779405133E-1
747 823 -4.208062770530395
747 836 -2.6326548314485704E-1
747 837 -1.6477657429485733
747 875 -6.225006542719768
747 923 -1.3525095662834998
747 924 2.0993824674999986
748 696 -5.250000000002965E-1
748 718 -4.772727272724817E-1
748 721 2.8049168633054924
748 736 -1.0046891576328216E1
748 737 -3.325750743173066
748 745 8.772941631134608E-1
748 746 -9.817684952174374E-1
748 747 -1.2836058936064831
748 748 4.225183779300472E1
748 749 7.326986968665685E-1
748 750 5.985555691961448E-1
748 751 -6.653090287976678
748 752 2.2699388483422184E-1
748 754 -2.500000000034709E-1
748 755 -1.5041599223564104E1
748 756 2.500000000034711E-1
748 757 9.640466967008909E-1
748 761 5.210167052302537E-1
748 762 1.7630384459209583
748 765 -1.3525095662834994
748 767 5.527703540836654E-1
748 770 -2.633916941817931E-1
748 771 1.594014030420104
748 772 -6.720884532871745
748 773 -3.0236150414374503
748 776 8.71220238074005E-1
748 777 -1.0639880952503735
748 778 -3.657264610290528E-1
748 779 3.4327651513745194E-1
748 787 -3.054599567057364
748 788 2.516233766245797
748 789 -3.6418290043279895
748 790 2.6176948052120106
748 791 -2.1904730893102364
748 792 -1.1577411964482953
748 803 5.170454545455943E-1
748 823 4.7727272727248127E-1
748 836 -2.148672081881411
748 837 -8.209919307800315E-1
748 875 -6.382654831454079E-1
748 923 1.7630396391688887
748 924 2.7847003428107033
749 721 1.4765743341266888
749 744 -1.1327136032223507E1
749 747 -4.732543315435791
749 748 7.326986968665685E-1
749 749 2.4269280116576343E1
749 750 -1.1089236111449385
749 751 -6.932639448567158E-1
749 752 1.94543131567954E-1
749 761 1.334548040825135
749 762 4.398731619908884E-2
749 765 -4.906893783180086
749 768 -5.113773241333176E-1
749 769 -2.0427028813447423
749 771 1.184065395152802
749 772 1.1840206586967874
749 773 6.978483266880215E-1
749 836 -7.652170309478404E-1
749 837 -1.4537321535126704
749 874 -1.7529575592625701
749 875 -7.965812885543071E-1
749 876 -9.787925676002773E-1
749 901 2.1840031223751463E-1
749 902 1.2460561315666578
749 909 -2.8102810171434622E-2
749 910 1.780080188082573E-1
749 923 -1.61373289181825
749 924 -4.807328512536837E-2
750 619 -1.184121696023137
750 620 2.0355613016367619E-1
750 635 2.1840503578947854
750 721 3.513318129373685E-2
750 736 -1.2426438823358221
750 737 -1.6996880688397509
750 741 -7.589006274762141
750 742 -6.223739528179763E-1
750 743 -1.8998572148116062
750 744 -1.8708171770210094
750 745 -1.1597271572012467E1
750 746 1.8702560591397193
750 747 -1.096581737890956E1
750 748 5.985555691961448E-1
750 749 -1.1089236111449385
750 750 3.973864798383966E1
750 751 -1.403952947399166
750 752 -3.510647476230112
750 753 -8.885241815906602E-1
750 761 -1.4918501524308036E1
750 762 2.1580095847146823
750 763 1.5058958832819664
750 764 4.3233623289006456E-2
750 767 7.3117608924468485
750 768 3.409182160887715E-1
750 769 1.3618019208960677
750 770 2.6868421315288686
750 771 4.6220623772121294E-1
750 772 -1.9326394485671547E-1
750 773 1.945431315679533E-1
751 619 -3.885241815906592E-1
751 620 7.789053150355186E-1
751 635 1.5058958832819669
751 721 -1.469178412393899E1
751 736 3.430053845182425
751 737 -1.0900977111445118
751 741 -3.723739528188448E-1
751 742 -7.829286006610947
751 743 -1.9126400830057175
751 744 2.159182160893223E-1
751 745 2.1202560591405875
751 746 -1.0912611968225331E1
751 747 2.2355556919559305E-1
751 748 -6.653090287976678
751 749 -6.932639448567158E-1
751 750 -1.403952947399166
751 751 3.469520123477072E1
751 752 4.515982813428626
751 753 7.294898792943026E-1
751 761 3.5133181293736146E-2
751 762 2.875822333981838E-1
751 763 2.2529332142989253
751 764 1.0756399167099788
751 767 -1.2426438823358215
751 768 -1.775015256926506
751 769 1.3604181685976435E-2
751 770 -3.7065874748739085
751 771 -5.170537342287389E-1
751 772 7.541094701320744E-1
751 773 5.546645429945931E-1
752 619 2.0355613016367655E-1
752 620 2.0510637326882986
752 635 4.3233623289006526E-2
752 721 2.8758223339818284E-1
752 736 -1.0900977111445116
752 737 4.5716847564533545
752 741 -1.8998572148116066
752 742 -2.8054972258471635
752 743 -1.7706313059058278E1
752 744 1.3618019208960663
752 745 2.686842131528868
752 746 -2.8137303320324607
752 747 4.6220623772121294E-1
752 748 2.2699388483422184E-1
752 749 1.94543131567954E-1
752 750 -3.510647476230112
752 751 4.515982813428626
752 752 4.925158228471187E1
752 753 7.789053150355184E-1
752 761 2.1580095847146823
752 762 -1.4437425007497932E1
752 763 1.0756399167099784
752 764 5.118871211632347
752 767 -1.6996880688397513
752 768 -7.304434373769857E-1
752 769 -5.508217899930906
752 770 -1.6173958029005E1
752 771 -9.150303216503872
752 772 5.546645429945942E-1
752 773 1.9830152265101284
753 589 -1.9285058076950962E-1
753 593 1.1114758184058549
753 594 6.718967973415163E-1
753 614 -1.519997708134474
753 615 1.7862611264578454E-1
753 616 -5.193712186968836E-1
753 617 -1.0729041224809716E1
753 618 -1.1401807014579184
753 619 2.47486389110595
753 620 1.3915544222315053
753 621 7.789053150064661E-1
753 635 -1.0460066518372146
753 639 8.359859758086858E-1
753 640 2.8145996754162974
753 641 -1.1807079200948187
753 741 2.7928046461395956E-1
753 742 -1.7239675840550257
753 743 -5.361517584680797E-2
753 745 -2.054853517040183
753 746 -7.3139669223670625
753 750 -8.885241815906602E-1
753 751 7.294898792943026E-1
753 752 7.789053150355184E-1
753 753 2.813162864563538E1
753 763 -1.1060641558321219E1
753 764 1.4773314075051882
753 770 -2.2308187750249173
754 718 -3.005952380223607E-1
754 720 -5.629306970840997E-1
754 729 5.269663549520537E-1
754 730 3.1787973039217854
754 736 5.486939837655143E-1
754 737 -9.692319304892805E-1
754 747 -1.4905741527588342E1
754 748 -2.500000000034709E-1
754 754 4.230287082889353E1
754 755 -1.3092565052440275
754 756 -2.3095200038320254
754 757 5.022941630740166E-1
754 759 -1.1163847243695894E1
754 760 2.103884398355419E-1
754 766 5.342396693125444
754 767 -7.380755293282524
754 771 -2.6424356434112513
754 787 -4.3750000000498185E-1
754 788 -2.083333333420462E-1
754 789 6.562500000073361E-1
754 790 3.1250000001300154E-1
754 791 4.212538971362704
754 792 -1.5733972771200837
754 823 -2.406250000089461
754 836 2.500000000034709E-1
754 837 2.6424356434112517
754 838 -3.9269526509727615E-1
754 839 -1.1052006833229333
754 847 -4.7397772882797495
754 848 1.0474758450527384
754 849 -1.1849523224300211
754 856 8.557850795847828E-1
754 857 -1.3526170163409155
754 858 -2.099790031509024
754 875 3.856186786154173E-1
754 877 -5.680184685428815
755 718 -4.375000000049824E-1
755 720 -2.1437646641308528E-1
755 729 2.884221165539304
755 730 -1.7499792576320856
755 736 -1.0100142596190803E1
755 737 3.3311050510263684
755 747 -2.5000000000347034E-1
755 748 -1.5041599223564104E1
755 754 -1.3092565052440275
755 755 4.179287092956971E1
755 756 8.147941630727366E-1
755 757 -7.156599672968844E-2
755 759 5.853884398346623E-1
755 760 -6.774312007320428
755 766 5.269663549520542E-1
755 767 5.486939837655143E-1
755 771 -2.1904730893102364
755 787 -1.0577380951114397
755 788 -7.440476189972138E-1
755 789 -5.556250000140427
755 790 -9.672619048292412E-1
755 791 4.6805420868964154E-1
755 792 1.2537221763338444
755 823 6.562500000073372E-1
755 836 9.640466968627698E-1
755 837 4.047588035779277E-1
755 838 -2.069023987673255
755 839 1.8936835232938054E-1
755 847 7.349758450540183E-1
755 848 -6.721868908301417
755 849 3.024685988367705
755 856 -1.352617016340917
755 857 1.7513620230597748
755 858 -2.8055562431430054
755 875 2.500000000034704E-1
755 877 -7.676952650963955E-1
756 600 -2.500000000109018E-1
756 601 -4.37500000004574E-1
756 622 -2.8389863003860127
756 623 -6.838286400438662E-1
756 624 -1.435444839138645
756 632 -8.71914564558789
756 633 -2.067089773327491
756 634 3.169323089530518
756 636 -1.183051118969865E-1
756 637 1.5564326007006297
756 638 2.7208982337323464
756 639 -3.1760795476054504
756 640 1.4961295452583796
756 641 -1.6846614218435372
756 694 7.023809524353114E-1
756 695 -9.375000000431679E-1
756 716 -3.005952380221417E-1
756 717 6.249999999932796E-1
756 718 -2.440476190623232
756 720 -2.709595213060362
756 729 -1.8217557237467346
756 730 -2.631965302487064
756 736 -1.7083840019610184
756 737 1.6732141009747912
756 738 1.830780700360275
756 739 2.1011920765814268E-1
756 740 -8.675247108696027E-2
756 745 -3.4246786727573436E1
756 746 1.112343670891263E-2
756 747 3.856186784570652E-1
756 748 2.500000000034711E-1
756 754 -2.3095200038320254
756 755 8.147941630727366E-1
756 756 6.425157400183382E1
756 757 -3.7083332855219636E-1
756 759 -1.1520500441345561E1
756 760 2.0841258475620363
756 766 2.258002445470479
756 767 -3.7579615716842216
756 770 -2.0275990421933052
756 771 2.9549356434131866
756 787 9.166666666824747E-1
756 788 4.1666666672009206E-1
756 791 -1.8858972771221525
756 792 1.8393778326109782
757 600 5.309523810011603E-1
757 601 -1.057738095119479
757 622 -4.338286400451498E-1
757 623 -8.68283863764669E-1
757 624 1.0678906661853994E-1
757 632 -1.7545897733287723
757 633 -7.34071992642776
757 634 1.4144523601384775
757 636 1.5564326007006304
757 637 -2.627753590525797E-1
757 638 -1.9454684371937694
757 639 1.496129545258382
757 640 -3.635589513442114E-2
757 641 3.253392488812384E-1
757 694 -2.5000000001090134E-1
757 695 -2.4553571427762564
757 716 -4.3750000000457323E-1
757 717 1.636904761851824
757 718 9.166666666824742E-1
757 720 2.811943013894599
757 729 1.3521827870886316
757 730 -3.1732377075801352
757 736 -1.7541965217518847
757 737 1.0053061095579998
757 738 2.101192076581416E-1
757 739 -2.9625773877212933
757 740 1.6420223488191357
757 745 1.1123436708912453E-2
757 746 -3.459453615287876E1
757 747 2.500000000034706E-1
757 748 9.640466967008909E-1
757 754 5.022941630740166E-1
757 755 -7.156599672968844E-2
757 756 -3.7083332855219636E-1
757 757 6.099199300209742E1
757 759 1.8341258475633184
757 760 -1.0830901858598228E1
757 766 -1.8217557237467343
757 767 -1.7083840019610181
757 770 -4.012042599539717E-2
757 771 -1.157741196448295
757 787 -4.059523809709347
757 788 -8.928571429184535E-1
757 791 1.253722176333514
757 792 -5.31697033183022E-1
758 625 1.4541775445069544E-1
758 626 -3.578453217593938E-1
758 627 -1.2153926943292898E-1
758 628 2.719251417946965E-1
758 632 -1.9054844478973822
758 633 2.803848173601946E-1
758 634 -1.4276069941779896
758 636 -2.1407417807122626
758 637 5.490885839125205E-1
758 638 -4.9114367162762235E-1
758 719 -7.067325447445568E-1
758 720 1.9034759922340887
758 729 -5.756743419284592E-1
758 730 5.149238542566463E-1
758 758 1.1110401499977835E1
758 759 -7.578857816382879
758 760 -3.738464231462916E-1
758 766 8.100398764117385E-1
758 844 6.2487990362344675E-2
758 845 9.616887878426929E-2
758 846 -6.484177773526256E-2
759 625 -6.238464231475732E-1
759 632 -1.192858916937779
759 633 -8.984633561728602E-1
759 634 -2.0394385630516854E-1
759 636 2.2090522373652863
759 637 1.5069849430370956
759 638 -4.5433701108660324E-2
759 719 1.9034759922340878
759 720 3.6489933850869964
759 729 1.7361126210144393E-3
759 730 -2.2355832306519305
759 736 -1.2200757514098586
759 737 1.7612199876080363
759 754 -1.1163847243695894E1
759 755 5.853884398346623E-1
759 756 -1.1520500441345561E1
759 757 1.8341258475633184
759 758 -7.578857816382879
759 759 3.988624930234021E1
759 760 -1.3173001557949935
759 766 -1.5030558352020904E1
759 767 7.3735683692665335
759 791 -5.629306970840988E-1
759 792 -2.7095952130603616
759 844 -1.8659960354196967
759 845 3.42943707074748E-1
759 846 -1.3616773333888776
759 847 -1.1162511031693159
759 848 -2.11493363605555E-1
759 849 -1.9452533333002275E-1
760 625 -7.8242351060989455
760 632 -3.984633561728606E-1
760 633 7.146750097158141E-1
760 634 -7.802200206470868E-1
760 636 1.506984943037097
760 637 2.3033572589162765
760 638 -1.0764178163749878
760 719 1.9249106690816709
760 720 -4.522448886424664
760 729 -1.4778310236219607E1
760 730 -2.767094408581504E-1
760 736 3.4515180758474697
760 737 1.0839733008009773
760 754 2.103884398355419E-1
760 755 -6.774312007320428
760 756 2.0841258475620363
760 757 -1.0830901858598228E1
760 758 -3.738464231462916E-1
760 759 -1.3173001557949935
760 760 3.4765968648071514E1
760 766 1.736112621014068E-3
760 767 -1.220075751409858
760 791 5.2967115262034E-1
760 792 3.704800156767856
760 844 2.17943707073867E-1
760 845 -1.7632279020942878
760 846 -3.0483273241454056E-2
760 847 -7.114933636055552E-1
760 848 7.354681177804256E-1
760 849 -5.570758417245001E-1
761 635 -9.639414273428647
761 721 2.449445927451132
761 722 -6.4439237730537835
761 723 -4.012204509344184E-1
761 724 -2.7516115413491915E-2
761 725 -8.697030402200103E-1
761 726 -1.8252692435503637
761 727 1.0509272146493776E-2
761 736 -1.5205039061819092
761 737 -2.474836946327167
761 738 2.929534037343261
761 739 2.3271684721645967
761 740 2.1841409728863237
761 741 8.177139281628039E-1
761 742 -5.749032724728284E-1
761 743 -1.0581239846046955
761 744 -1.788260769459375
761 745 2.3267259346119094
761 746 -1.8404710372624313
761 747 5.220019956490594
761 748 5.210167052302537E-1
761 749 1.334548040825135
761 750 -1.4918501524308036E1
761 751 3.5133181293736146E-2
761 752 2.1580095847146823
761 761 3.95495938481417E1
761 762 -2.579214154682261E-1
761 763 -8.608533997688438E-1
761 764 -1.537162533531176
761 765 -7.349410558457433
761 767 -1.1168921806648104E1
761 768 3.5808291167943807E-1
761 769 9.173741090935225E-1
761 770 2.644522106612709
761 771 -3.121898543972053
761 772 1.4765743341266881
761 773 4.3987316199088626E-2
761 923 -1.442002217750482E-1
761 924 5.18916177663991E-1
762 635 -5.093982571277976E-1
762 721 2.500454276772062E-1
762 722 4.493796989303401E-1
762 723 7.229630345500113E-1
762 724 -6.306545220221983
762 725 -5.425669541311104E-1
762 726 -3.046409728650833E-1
762 727 1.6482914309028412E-1
762 736 -2.151763333719496
762 737 -1.4692415729101782E1
762 738 2.184140972886323
762 739 -2.274778776872596
762 740 9.009371725996691E-1
762 741 -5.15307637510512E-1
762 742 -2.0219599181466397E-1
762 743 2.7467025916260384
762 744 4.4268605896775254E-1
762 745 2.6445221066127074
762 746 3.1430483794665705
762 747 -3.121898543972053
762 748 1.7630384459209583
762 749 4.398731619908884E-2
762 750 2.1580095847146823
762 751 2.875822333981838E-1
762 752 -1.4437425007497932E1
762 761 -2.579214154682261E-1
762 762 3.610432177223264E1
762 763 -5.959770982854178E-1
762 764 -4.329038897211712
762 765 -5.007959837740255E-1
762 767 -2.474836946327168
762 768 -1.320256443349902
762 769 -3.47235929839569
762 770 -6.870230253951803E-1
762 771 2.9880715586508004
762 772 5.859421961325324E-1
762 773 3.5015745747385107
762 923 9.699289976169592E-2
762 924 -2.4816296351136615
763 568 2.4663506666243786
763 569 7.478912825753614E-1
763 589 -9.787626193253095E-1
763 593 -1.709904552801219
763 594 5.822535838905277E-1
763 608 -5.9026789710417695
763 609 7.546902969575567E-1
763 610 -8.99058691302012E-1
763 611 1.8529923073530005E-1
763 614 -3.8121917034118717
763 615 -2.6395046501530843
763 616 7.252960953697743E-2
763 617 4.255724723336104
763 618 1.540577597278026
763 619 -1.0460066518372164
763 620 1.4773314075051849
763 621 9.821122446071298E-1
763 635 9.510265921434341E-2
763 639 6.121323568233218E-1
763 640 -4.515775185816285
763 641 -1.3135627725927657
763 721 -3.31503195675956
763 722 -1.886300750105236
763 723 -2.859580237782724
763 724 1.238524931530243
763 738 -1.1237905869153904
763 739 -1.9852379313973427
763 740 -3.2044302901604773
763 741 5.494478740688883E-1
763 742 -3.6363625159286923
763 743 -2.4577984781337157
763 745 1.5494692142457818
763 746 -2.889813680700378E-1
763 750 1.5058958832819664
763 751 2.2529332142989253
763 752 1.0756399167099784
763 753 -1.1060641558321219E1
763 761 -8.608533997688438E-1
763 762 -5.959770982854178E-1
763 763 3.1184628598305956E1
763 764 9.948036777986409E-1
763 770 1.9690930005855969
764 568 -7.776690445437412E-2
764 569 -1.831545106252259
764 589 -6.338628977692451E-1
764 593 1.4408647513239647
764 594 9.821122446071322E-1
764 608 -2.5599735276135005E-1
764 609 -1.0684827570312327E-1
764 610 1.1951610108971521E-1
764 611 -1.0868509876713033
764 614 -1.6693104033785955
764 615 -3.359946666193465
764 616 2.314702752837337
764 617 1.540577597278026
764 618 4.681080628785972
764 619 -2.3868284588542696
764 620 -8.658922168276828
764 621 2.31464304101405
764 635 1.8804961094912924
764 639 3.4251688347969695
764 640 -1.3135627725927663
764 641 -1.1550229706268652E1
764 721 -5.622827097231983E-1
764 722 7.102298580269498E-1
764 723 4.024611281288278E-1
764 724 -7.237280691735193E-1
764 738 -2.8452683271865955
764 739 -3.2044302901604778
764 740 -3.949355733793619
764 741 4.924909971442103E-1
764 742 -1.5559515450867143
764 743 -3.9958019448388575
764 745 -2.719449529410947
764 746 1.969093000585593
764 750 4.3233623289006456E-2
764 751 1.0756399167099788
764 752 5.118871211632347
764 753 1.4773314075051882
764 761 -1.537162533531176
764 762 -4.329038897211712
764 763 9.948036777986409E-1
764 764 3.285242795543482E1
764 770 -5.481603557186981
765 721 -1.442002217750468E-1
765 725 -3.2177148579876463E-1
765 726 1.3493900303539588
765 727 1.1901670049781643E-1
765 736 -9.676181199365583E-2
765 737 -1.9234275522430644E-1
765 744 8.571599816969012E-1
765 747 8.637451156500152E-1
765 748 -1.3525095662834994
765 749 -4.906893783180086
765 761 -7.349410558457433
765 762 -5.007959837740255E-1
765 765 3.0164286643192987E1
765 767 -5.299036427428295
765 768 -3.913451285315258E-1
765 769 -1.0025887215642668
765 771 2.099382467499999
765 772 -1.61373289181825
765 773 -4.8073285125369306E-2
765 836 1.684028475393072
765 837 -1.8656483727027218
765 874 -1.4334570931875565
765 875 4.811391056105278E-2
765 876 9.143191963702597E-1
765 901 1.818165423521002E-1
765 902 8.530039434839862E-1
765 909 1.4784247560235317
765 910 2.147286062882955E-2
765 920 -1.6332166062241573
765 921 -1.9813972868593714
765 922 -2.0509016768653293E-1
765 923 2.804513344493883
765 924 3.403718226547003
765 925 -1.1903838893194928E1
765 926 -1.9182262413551956
765 927 -2.682054912580412
766 625 -5.756743419284598E-1
766 636 -9.732495522451654
766 637 -8.76331839234731E-1
766 638 1.5097997765707512
766 719 1.0587741377472244
766 720 -2.2355832306519297
766 729 2.4707487983328256
766 730 3.553280545053401E-1
766 731 -6.3943504947035334
766 732 -3.699301349522779E-1
766 733 1.5489901137042406E-2
766 734 -1.7121688782575362E-3
766 736 -1.520811570484141
766 737 2.4467344146479717
766 738 2.8773993924693135
766 739 2.3101234508350985
766 740 -2.184364489475628
766 754 5.342396693125444
766 755 5.269663549520542E-1
766 756 2.258002445470479
766 757 -1.8217557237467343
766 758 8.100398764117385E-1
766 759 -1.5030558352020904E1
766 760 1.736112621014068E-3
766 766 3.961793282706617E1
766 767 -1.1167173470929015E1
766 791 3.178797303921783
766 792 -2.6319653024870653
766 844 -1.7856583731531186
766 845 3.5840496592081356E-1
766 846 -9.18165426787192E-1
766 847 1.349031337009267
766 848 1.4773228399010303
766 849 -4.342988312891172E-2
766 856 -7.315330569940899
766 857 -1.6166315165993672E-1
766 858 -5.497030871211274E-1
766 954 -8.29235788353295E-1
766 955 -1.8191357605565548
767 22 4.185065534008183
767 23 2.7039602043313238E-2
767 48 1.6257742396071442
767 720 1.761219987608038
767 721 -1.5205039061819088
767 722 5.302415368446011
767 723 2.524490674784016
767 724 -1.3367998555422569
767 725 -7.666831660396174
767 726 -3.556109933489217E-1
767 727 -1.6975364948338123E-2
767 729 -1.5208115704841396
767 730 2.44673441464797
767 731 5.256084671936624
767 732 2.495139023091479
767 733 1.3566826878941873
767 734 -1.2389655121747882E-1
767 736 4.386811020936433
767 737 1.6123965100474152E-1
767 738 -2.0879472727197935E1
767 739 -5.97994727935284E-1
767 740 -4.682413403994057E-2
767 745 -3.4845756904590868
767 746 -1.692590814155807
767 747 -7.292090626324931
767 748 5.527703540836654E-1
767 750 7.3117608924468485
767 751 -1.2426438823358215
767 752 -1.6996880688397513
767 754 -7.380755293282524
767 755 5.486939837655143E-1
767 756 -3.7579615716842216
767 757 -1.7083840019610181
767 759 7.3735683692665335
767 760 -1.220075751409858
767 761 -1.1168921806648104E1
767 762 -2.474836946327168
767 765 -5.299036427428295
767 766 -1.1167173470929015E1
767 767 8.151637988239784E1
767 770 -1.6970018055711904
767 771 9.264712108347899E-1
767 791 -9.692319304892809E-1
767 792 1.6732141009747916
767 836 1.8914084518241263
767 837 8.20730035813733E-1
767 838 1.906373657290229
767 839 -8.650353536366668E-1
767 853 2.5041292884696653
767 854 -1.2202338599111584
767 855 -2.552490191175394
767 856 -5.334889233500645
767 857 -9.604612138367045E-2
767 858 1.919946615804189E-1
767 859 7.431238154440507E-1
767 860 1.393710949622994
767 861 -2.522785767165709
767 875 -3.7761633522122913
767 877 -3.606653060480515
767 920 2.685674748401394
767 921 -1.1032794176149054
767 922 2.545470878823027
767 923 -9.676181199365681E-2
767 924 -1.9234275522430647E-1
767 925 1.1135354183925235
767 926 1.400174563867036
767 927 2.5902297702000308
767 932 -3.1182772475609258E-3
767 954 -7.847553787437756
767 955 -4.5333742527239074E-1
767 959 -1.9329659281228153E1
767 960 -5.897072634884097
768 721 -2.9075209212782855
768 741 1.0224535172787634E-1
768 742 7.138351872525159E-1
768 743 4.914970187890517E-1
768 744 1.632765976451406E-1
768 749 -5.113773241333176E-1
768 750 3.409182160887715E-1
768 751 -1.775015256926506
768 752 -7.304434373769857E-1
768 761 3.5808291167943807E-1
768 762 -1.320256443349902
768 765 -3.913451285315258E-1
768 768 1.4160753527453013E1
768 769 4.675883327917474
768 772 -1.1470838912365307E1
768 773 -3.0710015106263175
768 874 -6.180062447638371E-2
768 901 8.442162052613169E-1
768 902 3.723013395019634E-1
768 923 4.345701706032552E-1
768 924 -4.179802948552834E-1
769 721 -2.2142237060897862
769 741 6.48477105622004E-2
769 742 4.0810246671158645E-1
769 743 1.7106273613416607
769 744 1.2946279249857469
769 749 -2.0427028813447423
769 750 1.3618019208960677
769 751 1.3604181685976435E-2
769 752 -5.508217899930906
769 761 9.173741090935225E-1
769 762 -3.47235929839569
769 765 -1.0025887215642668
769 768 4.675883327917474
769 769 2.964518826987717E1
769 772 -2.1037396058750417
769 773 -2.7071077644490803E1
769 874 -5.933600626285301E-1
769 901 5.222209831788861E-1
769 902 1.998145281561964
769 923 -1.3018476475290945
769 924 2.6976939300366025
770 600 1.9298735119214503
770 616 -1.4354448391352252
770 617 -1.0836871238701367
770 618 1.0123305551870427
770 619 -3.177613974373548
770 620 -9.983918052634992
770 622 3.2875563450170677
770 623 9.768980572368274E-1
770 624 3.841618957911933E-1
770 635 -2.719449529410946
770 639 1.6708761481849512
770 640 -3.205670145301837E-1
770 641 1.155469412330053E-1
770 694 1.1002604166894652
770 695 -1.8180896578856163
770 696 -1.3020833332430146E-1
770 718 -1.2500000000307634
770 721 3.143048379466572
770 736 -1.0149595990439613
770 737 1.8478735076112085E-1
770 738 1.0049192127994604E-1
770 739 -1.6347992179308766
770 740 1.4235621530456761
770 745 2.510598487639374
770 746 -3.467494808681296E-1
770 747 -1.5638300329130972
770 748 -2.633916941817931E-1
770 750 2.6868421315288686
770 751 -3.7065874748739085
770 752 -1.6173958029005E1
770 753 -2.2308187750249173
770 756 -2.0275990421933052
770 757 -4.012042599539717E-2
770 761 2.644522106612709
770 762 -6.870230253951803E-1
770 763 1.9690930005855969
770 764 -5.481603557186981
770 767 -1.6970018055711904
770 770 1.165725538888093E2
770 771 2.3154435233381326E-1
770 776 -5.5803571441815025E-2
770 777 3.4484002975755104
770 787 2.6785714285506725
770 788 -5.227976190162986
770 792 -8.400031892246591E1
771 696 3.1249999988766652E-2
771 718 1.8181818181773275
771 721 1.7630384459209585
771 736 -3.3257507431730664
771 737 -6.172535326690725
771 745 -1.042996699581832
771 746 -2.633916941985313E-1
771 747 1.959190978324587
771 748 1.594014030420104
771 749 1.184065395152802
771 750 4.6220623772121294E-1
771 751 -5.170537342287389E-1
771 752 -9.150303216503872
771 754 -2.6424356434112513
771 755 -2.1904730893102364
771 756 2.9549356434131866
771 757 -1.157741196448295
771 761 -3.121898543972053
771 762 2.9880715586508004
771 765 2.099382467499999
771 767 9.264712108347899E-1
771 770 2.3154435233381326E-1
771 771 6.959929767134055E1
771 772 -3.990876946188727
771 773 -1.0562945145909831E1
771 776 -3.199404761991187E-1
771 777 3.4705505951946236
771 778 1.3105384199054664
771 779 2.7498883929127715
771 787 2.516233766245798
771 788 -6.084226190470887
771 789 2.61769480521201
771 790 -1.0656845237983154E1
771 791 -3.712849612299509E1
771 792 3.856186778988347E-1
771 803 -2.2490530302112272E-1
771 823 -2.130681818179265
771 836 -8.209919307683264E-1
771 837 -1.386592893945322
771 875 -2.27276574294715
771 923 2.7847003428107038
771 924 1.7169728861674947
772 721 6.705274024948229E-1
772 744 -3.2387732413408515E-1
772 747 1.0451986968673377
772 748 -6.720884532871745
772 749 1.1840206586967874
772 750 -1.9326394485671547E-1
772 751 7.541094701320744E-1
772 752 5.546645429945942E-1
772 761 1.4765743341266881
772 762 5.859421961325324E-1
772 765 -1.61373289181825
772 768 -1.1470838912365307E1
772 769 -2.1037396058750417
772 771 -3.990876946188727
772 772 2.7636708768877167E1
772 773 6.245352292392992
772 836 -5.685475358221379E-1
772 837 -1.0940704960386969
772 874 1.5590031223774745E-1
772 875 -1.2027170309480744
772 876 -5.281028101714352E-1
772 901 -1.7270228517679027
772 902 1.086930781632447E-1
772 909 7.797106016564626E-1
772 910 3.344051336402748E-1
772 923 -9.353762410333436
772 924 -6.403701952211729E-1
773 721 5.859421961325332E-1
773 744 -2.0427028813447405
773 747 1.1840653951528024
773 748 -3.0236150414374503
773 749 6.978483266880215E-1
773 750 1.945431315679533E-1
773 751 5.546645429945931E-1
773 752 1.9830152265101284
773 761 4.3987316199088626E-2
773 762 3.5015745747385107
773 765 -4.8073285125369306E-2
773 768 -3.0710015106263175
773 769 -2.7071077644490803E1
773 771 -1.0562945145909831E1
773 772 6.245352292392992
773 773 4.408997008334494E1
773 836 -4.2442763888544177E-1
773 837 -1.4344716112210976
773 874 1.2460561315666567
773 875 -1.453732153512671
773 876 1.7800801880825934E-1
773 901 -5.609497789900115E-1
773 902 -5.081198916697088
773 909 3.344051336402755E-1
773 910 1.85034821124741
773 923 -6.403701952211731E-1
773 924 -7.275214777522164
774 689 7.812499999826639E-3
774 690 1.46897321434605
774 691 4.1852678571346097E-1
774 696 1.6406249999927386E-1
774 774 1.724936755947953E1
774 775 4.673549107125552
774 776 2.858556547489785
774 777 2.3251488090926836E-1
774 778 -6.371168154556293
774 779 -2.43210565470848
774 784 -7.546056547449447
774 785 -8.858184524152113
774 786 -1.8787202381250347
774 799 1.6015624999933148E-1
774 800 -5.208333333304115E-2
774 801 1.1985119048424862
774 802 3.3482142858893826E-1
774 803 -2.4609374999885836E-1
774 817 -1.015624999995344E-1
774 818 -1.348586309503706
774 819 6.770833333300151E-2
775 689 3.9062500026041586E-2
775 690 4.185267857302787E-1
775 691 3.4779017858672483
775 696 6.119791666616138E-1
775 774 4.673549107125552
775 775 3.9682403273715956E1
775 776 -5.115327381419834E-1
775 777 7.992485118719509
775 778 -3.399367559476498
775 779 -1.2822061011405678E1
775 784 -3.8132440475250634E-1
775 785 -1.13467261906202
775 786 -2.1893898810380872E1
775 799 8.007812499593252E-1
775 800 -2.6041666665579477E-1
775 801 3.348214285771755E-1
775 802 2.8056547621066894
775 803 -9.179687499922249E-1
775 817 -8.203124999963733E-1
775 818 -1.924248511862285E1
775 819 5.468749999974104E-1
776 600 -4.2929315474040655
776 601 2.1874574830254767
776 689 -2.9166666666533203E-1
776 690 -4.751190475968942
776 691 -2.827380952320343
776 694 4.374999999854341E-1
776 695 9.486607142316477E-1
776 696 -2.5297618380142467E-3
776 703 -1.2499999996483335E-1
776 704 -6.428571428660641E-1
776 705 3.8816326527777827
776 706 5.102040816165812E-1
776 716 1.9642857142812556E-1
776 717 -1.371173469306866
776 718 -3.3333333335932147E-1
776 745 4.374999999998046E-1
776 746 4.768601190243019E-1
776 747 -5.250000000002966E-1
776 748 8.71220238074005E-1
776 770 -5.5803571441815025E-2
776 771 -3.199404761991187E-1
776 774 2.858556547489785
776 775 -5.115327381419834E-1
776 776 3.077132983694621E1
776 777 2.3899872448802784
776 778 -5.022395833017311
776 779 -7.161458332647599E-1
776 780 -1.8153769841582177
776 781 2.0089285714536804
776 782 2.1343750000492845
776 783 1.4322916666020082
776 785 -1.0373148147873204E1
776 786 1.3392857143117016
776 787 -1.6926388888965107E1
776 788 -2.827380952421012
776 799 1.640624999992742E-1
776 803 -8.072916667493925E-2
776 810 4.7395833335171794E-1
776 819 2.91666666604446E-1
777 600 9.486607142316517E-1
777 601 -1.3711734693068687
777 689 -6.24999999989191E-1
777 690 -1.9345238094613155
777 691 -9.215476189936824
777 694 -2.864583332907565E-1
777 695 -6.126078868545585
777 696 2.3980654760885334
777 703 6.249999999736968E-1
777 704 7.142857142606515E-1
777 705 5.102040816165799E-1
777 706 1.0361224489275365E1
777 716 1.8303571428517895
777 717 6.775722789607113E-1
777 718 -1.4583333333048434
777 745 2.8645833334029813E-1
777 746 -9.486607143008424E-1
777 747 -5.93750000009811E-1
777 748 -1.0639880952503735
777 770 3.4484002975755104
777 771 3.4705505951946236
777 774 2.3251488090926836E-1
777 775 7.992485118719509
777 776 2.3899872448802784
777 777 5.612826010847307E1
777 778 -7.16145833264757E-1
777 779 -9.827083332689407
777 780 2.00892857145368
777 781 -6.223859126951855
777 782 1.4322916666020071
777 783 1.9781250000742383
777 785 1.3392857143117034
777 786 -1.6206481481063296E1
777 787 -2.827380952421012
777 788 -3.645763888908606E1
777 799 4.036458333268587E-1
777 803 -1.8098958333196173
777 810 -1.2760416666834873
777 819 -2.0833333324411984E-1
778 696 -8.072916667493897E-2
778 718 5.606060606066919E-1
778 747 5.170454545455947E-1
778 748 -3.657264610290528E-1
778 771 1.3105384199054664
778 774 -6.371168154556293
778 775 -3.399367559476498
778 776 -5.022395833017311
778 777 -7.16145833264757E-1
778 778 3.436025817211882E1
778 779 3.4809022094303956
778 782 -7.201860119007926
778 783 2.836681547650514
778 784 -9.383035714172644
778 785 5.670833333088396
778 786 1.5624999999585172
778 787 1.8054924242379027
778 788 -8.049242424205131E-1
778 789 -1.2072125359628194E1
778 790 -4.144423758103022
778 799 -2.460937499988588E-1
778 800 1.09374999999482E-1
778 801 3.641815476112364
778 802 -1.6741071431913607E-1
778 803 -5.437025051597809E-2
778 804 7.073453181897162E-1
778 805 -5.247374078365354
778 806 -1.7144539384341244
778 810 -4.192708333322518E-1
778 811 3.937959179143212E-1
778 812 -3.00870732551213
778 813 2.619841190376439
778 817 2.1875000000304962E-1
778 818 -7.812499999942095E-1
778 819 -4.3750000000704203E-1
778 823 -2.272727272724788E-1
778 830 -4.4197006785574555E-1
778 831 -1.7467236361712202
778 832 7.366894294480721E-1
778 833 -1.9848341791483998E-1
778 834 2.889252315995374
778 835 -8.97799737487746E-1
778 836 2.051464959907264
778 837 7.862298673060075E-2
778 875 -4.0122753768672104E-1
779 696 -9.765624999862831E-1
779 718 2.4526515151527115
779 747 2.95928030310144E-1
779 748 3.4327651513745194E-1
779 771 2.7498883929127715
779 774 -2.43210565470848
779 775 -1.2822061011405678E1
779 776 -7.161458332647599E-1
779 777 -9.827083332689407
779 778 3.4809022094303956
779 779 6.069717895354737E1
779 782 2.8366815476505094
779 783 -1.8083556547445426E1
779 784 -7.8124999999421E-1
779 785 1.5624999999585194
779 786 1.3170833332944426E1
779 787 -8.049242424205122E-1
779 788 2.636458333302169
779 789 -4.144423758103018
779 790 -2.79437705602577E1
779 799 -6.054687499901583E-1
779 800 3.385416666626573E-1
779 801 5.022321428286252E-1
779 802 9.668601190279611
779 803 1.0391926843776766
779 804 2.9244663131136234E-1
779 805 -1.5145913010680998
779 806 -1.0623062712624403E1
779 810 1.5494791666630892
779 811 -9.970482454432898E-1
779 812 2.6198411903764356
779 813 -8.241956060952116
779 817 -1.562499999988429E-1
779 818 -9.20446428562824
779 819 3.1249999999170375E-1
779 823 -9.943181818164639E-1
779 830 -7.693009109223081E-1
779 831 6.622846675426409E-1
779 832 -2.8339235113634316
779 833 -2.088889254552911
779 834 -8.977997374877451E-1
779 835 4.477017175545357
779 836 -7.164777458777523E-1
779 837 6.179900643834692
779 875 3.070981482409151E-1
780 601 -3.8595610119821044E-1
780 696 -1.2499999996483338E-1
780 700 4.166666666698642E-2
780 701 1.520238095226915
780 702 -4.464285714197399E-1
780 703 -2.1679687495592767E-1
780 704 -5.9244791678144504E-2
780 705 -6.782719494430519
780 706 3.045944939742806E-1
780 716 6.406249999985532E-1
780 717 7.765997024051644E-1
780 718 -4.3750000001863926E-1
780 776 -1.8153769841582177
780 777 2.00892857145368
780 780 1.3406547618974642E1
780 781 -1.5834263392331167
780 782 1.3523065476586384
780 783 -4.185267857302783E-1
780 785 -7.14541170591026
780 786 -3.6272321426211906E-1
780 787 -1.496279761629886E-1
780 788 -2.790178571878711E-1
780 810 -9.114583333379497E-2
780 819 2.4739583328580078E-1
781 601 1.5950520833579613
781 696 6.249999999736972E-1
781 700 -2.0833333337027102E-1
781 701 -4.4642857143740955E-1
781 702 3.663095238064381
781 703 1.083984375058154
781 704 -2.275390625035446
781 705 -5.138578869953337E-1
781 706 -1.6883165923483883E1
781 716 -6.315104166706694E-1
781 717 1.580422246960447
781 718 1.3020833334784634E-1
781 776 2.0089285714536804
781 777 -6.223859126951855
781 780 -1.5834263392331167
781 781 2.7877111235042346E1
781 782 -4.185267857134606E-1
781 783 3.361235119142351
781 785 -1.2555803571034758
781 786 -1.5225768848366256E1
781 787 6.138392856711543E-1
781 788 1.8509300595924651
781 810 4.5572916662188545E-1
781 819 8.203125000748035E-1
782 696 4.739583333517171E-1
782 703 1.3020833333130824E-2
782 718 4.0833333332096755E-1
782 776 2.1343750000492845
782 777 1.4322916666020071
782 778 -7.201860119007926
782 779 2.8366815476505094
782 780 1.3523065476586384
782 781 -4.185267857134606E-1
782 782 1.386020833341587E1
782 783 -1.041666666719621
782 784 -4.02187499985444
782 785 -6.113392857491208
782 786 -8.556547619173647E-1
782 787 -1.4907142857614195
782 788 2.2321428574421837E-1
782 789 9.883928571458118E-1
782 790 -2.604166666763399E-1
782 803 -4.1927083333225085E-1
782 810 2.4791666670019813E-1
782 811 -1.5625000000993375E-1
782 812 4.925595238453895E-1
782 813 -1.116071428489043E-1
782 817 2.135416666682561E-1
782 818 -1.8043154761210447
782 819 -3.4375000003257916E-1
782 823 -4.374999999995056E-1
783 696 -1.2760416666834862
783 703 -6.510416670938002E-2
783 718 -5.416666666469356E-1
783 776 1.4322916666020082
783 777 1.9781250000742383
783 778 2.836681547650514
783 779 -1.8083556547445426E1
783 780 -4.185267857302783E-1
783 781 3.361235119142351
783 782 -1.041666666719621
783 783 2.7266458333516752E1
783 784 -2.7715773808722446
783 785 -1.5997023809803819
783 786 -1.2899107143567136E1
783 787 9.672619047954715E-1
783 788 -3.880357143817037E-1
783 789 7.06845238091673E-1
783 790 4.727232142884187
783 803 1.5494791666630907
783 810 -4.7395833330134407E-1
783 811 7.812499999849745E-1
783 812 -1.1160714283714149E-1
783 813 1.4970238095896045
783 817 5.468750000066461E-1
783 818 -7.459374999812867
783 819 -1.093749999973599
783 823 5.729166666600326E-1
784 774 -7.546056547449447
784 775 -3.8132440475250634E-1
784 778 -9.383035714172644
784 779 -7.8124999999421E-1
784 782 -4.02187499985444
784 783 -2.7715773808722446
784 784 2.3041579860981294E1
784 785 1.3010416667897944
784 786 3.906250000210946E-1
784 799 -3.906249999979329E-2
784 800 1.302083333326931E-2
784 801 -7.40528273833265
784 802 -8.649553571529256E-1
784 803 2.187500000030497E-1
784 804 -4.375000000061101E-1
784 805 5.6708333331988925
784 806 1.5624999999884353
784 810 3.177083333351827E-1
784 811 -4.2838541666795676E-1
784 812 -2.307725694587313
784 813 -1.781063988170499
784 814 1.744791666619072E-1
784 815 6.505208334265106E-1
784 816 1.953125000135604E-1
784 817 -1.6796874998243422E-1
784 818 4.431733630919294
784 819 3.4895833332288595E-1
785 689 -5.2083333333280274E-2
785 690 -6.093154761640726
785 691 -1.1160714284736362E-1
785 696 2.916666666044457E-1
785 703 3.307291666194272E-1
785 704 3.567708333177316E-1
785 705 1.9515625000930845
785 706 5.859375000135844E-1
785 718 4.01826766305291E-11
785 774 -8.858184524152113
785 775 -1.13467261906202
785 776 -1.0373148147873204E1
785 777 1.3392857143117034
785 778 5.670833333088396
785 779 1.5624999999585194
785 780 -7.14541170591026
785 781 -1.2555803571034758
785 782 -6.113392857491208
785 783 -1.5997023809803819
785 784 1.3010416667897944
785 785 2.832334656062369E1
785 786 1.6517857142740218
785 787 1.3365079364725447
785 788 -1.4285714285856823
785 799 2.604166666652063E-2
785 803 -4.3750000000704126E-1
785 810 -4.68750000032766E-1
785 817 1.822916666562187E-1
785 818 3.906250000210948E-1
785 819 -2.291666665314396E-1
786 689 -1.0937499999968054
786 690 -1.0044642856887214
786 691 -1.5736011904097737E1
786 696 -2.0833333324412306E-1
786 703 8.203125000748036E-1
786 704 1.1718750000271717E-1
786 705 5.859375000135847E-1
786 706 4.76406250013139
786 718 -5.0231874215711514E-11
786 774 -1.8787202381250347
786 775 -2.1893898810380872E1
786 776 1.3392857143117016
786 777 -1.6206481481063296E1
786 778 1.5624999999585172
786 779 1.3170833332944426E1
786 780 -3.6272321426211906E-1
786 781 -1.5225768848366256E1
786 782 -8.556547619173647E-1
786 783 -1.2899107143567136E1
786 784 3.906250000210946E-1
786 785 1.6517857142740218
786 786 5.74423941796534E1
786 787 -1.42857142858568
786 788 3.407936507883269
786 799 5.468749999974113E-1
786 803 3.1249999999170314E-1
786 810 -1.0937499999735976
786 817 7.81250000042194E-2
786 818 3.1760416668628086
786 819 5.208333331939033E-1
787 600 2.6723214285290418
787 601 -2.5393601190371053
787 694 1.0899545155318435E-11
787 695 -6.696428570866668E-1
787 696 -3.3333333335932175E-1
787 703 -4.3750000001863965E-1
787 716 -3.1249999998267997E-1
787 717 5.022321427990711E-1
787 718 6.136363633666313E-2
787 745 2.499999999890981E-1
787 746 -1.7011904760914016
787 747 -4.7727272727248143E-1
787 748 -3.054599567057364
787 754 -4.3750000000498185E-1
787 755 -1.0577380951114397
787 756 9.166666666824747E-1
787 757 -4.059523809709347
787 770 2.6785714285506725
787 771 2.516233766245798
787 776 -1.6926388888965107E1
787 777 -2.827380952421012
787 778 1.8054924242379027
787 779 -8.049242424205122E-1
787 780 -1.496279761629886E-1
787 781 6.138392856711543E-1
787 782 -1.4907142857614195
787 783 9.672619047954715E-1
787 785 1.3365079364725447
787 786 -1.42857142858568
787 787 2.5368176407023363E1
787 788 1.8682359308179692
787 789 -2.0335497836667635E-1
787 790 -1.4204545454403833E-1
787 791 -1.488095238030867
787 792 -1.7857142857913617
787 803 5.606060606066917E-1
787 810 4.083333333209679E-1
787 819 4.018153865192886E-11
787 823 -1.9886363634887333E-1
788 600 -6.696428570866699E-1
788 601 5.022321428166763E-1
788 694 -1.5624999999630331
788 695 2.0808035713616553
788 696 -1.4583333333048425
788 703 -2.8645833331675186E-1
788 716 -3.385416666685471E-1
788 717 -2.229650297582035
788 718 1.1382575756767588
788 745 -1.2500000000307647
788 746 2.6785714285506748
788 747 1.8181818181773277
788 748 2.516233766245797
788 754 -2.083333333420462E-1
788 755 -7.440476189972138E-1
788 756 4.1666666672009206E-1
788 757 -8.928571429184535E-1
788 770 -5.227976190162986
788 771 -6.084226190470887
788 776 -2.827380952421012
788 777 -3.645763888908606E1
788 778 -8.049242424205131E-1
788 779 2.636458333302169
788 780 -2.790178571878711E-1
788 781 1.8509300595924651
788 782 2.2321428574421837E-1
788 783 -3.880357143817037E-1
788 785 -1.4285714285856823
788 786 3.407936507883269
788 787 1.8682359308179692
788 788 4.278491071445099E1
788 789 -1.4204545455792092E-1
788 790 -1.2827380952793396E-1
788 791 -3.880952379713087E-1
788 792 -1.8571428574076156
788 803 2.4526515151527106
788 810 8.3333333351642E-2
788 819 -5.023359506139968E-11
788 823 -8.049242424023143E-1
789 718 -1.9886363634887233E-1
789 747 4.772727272724812E-1
789 748 -3.6418290043279895
789 754 6.562500000073361E-1
789 755 -5.556250000140427
789 771 2.61769480521201
789 778 -1.2072125359628194E1
789 779 -4.144423758103018
789 782 9.883928571458118E-1
789 783 7.06845238091673E-1
789 787 -2.0335497836667635E-1
789 788 -1.4204545455792092E-1
789 789 2.3879173892425047E1
789 790 2.436276262617978
789 791 -1.9345238096038224
789 803 -2.272727272724797E-1
789 810 -4.3749999999950584E-1
789 811 4.012275376867219E-1
789 812 2.051464959907267
789 813 7.862298673059831E-2
789 823 -4.6363651012387E-2
789 824 -3.792203181843341E-1
789 825 -5.478205071595434E-1
789 826 -5.425789384760692E-1
789 830 1.9848341791483692E-1
789 831 2.8892523159953636
789 832 -8.977997374877438E-1
789 833 4.41970067855746E-1
789 834 -1.7467236361711946
789 835 7.366894294480629E-1
789 836 -4.98244244454367
789 837 2.4245286903787546
789 838 -1.0577380951357924
789 839 -1.3392857142505026
789 875 -4.484834179148379E-1
789 877 -4.375000000047071E-1
790 718 -1.6382575757356483
790 747 -2.130681818179265
790 748 2.6176948052120106
790 754 3.1250000001300154E-1
790 755 -9.672619048292412E-1
790 771 -1.0656845237983154E1
790 778 -4.144423758103022
790 779 -2.79437705602577E1
790 782 -2.604166666763399E-1
790 783 4.727232142884187
790 787 -1.4204545454403833E-1
790 788 -1.2827380952793396E-1
790 789 2.436276262617978
790 790 3.9802387288061034E1
790 791 -2.275000000166078
790 803 -9.943181818164624E-1
790 810 5.208333332876813E-2
790 811 -3.0709814824091036E-1
790 812 -7.164777458777534E-1
790 813 6.179900643834696
790 823 1.4424597776796997
790 824 -5.26821631296399E-1
790 825 -3.427163011166056E-1
790 826 -5.663662844245911E-1
790 830 2.0888892545529116
790 831 -8.977997374877449E-1
790 832 4.477017175545319
790 833 7.693009109223118E-1
790 834 6.622846675426295E-1
790 835 -2.8339235113633823
790 836 2.424528690378757
790 837 -1.0394262608565686E1
790 838 -6.696428571166304E-1
790 839 -3.880952380366991E-1
790 875 1.0361107454428167
790 877 -1.0416666667082511E-1
791 718 -4.166666666768014E-1
791 720 -9.342236956056757
791 729 -1.7499792576320847
791 730 3.1325909118963087
791 736 3.331105051026369
791 737 -6.2686589314075105
791 747 -2.642435643411251
791 748 -2.1904730893102364
791 754 4.212538971362704
791 755 4.6805420868964154E-1
791 756 -1.8858972771221525
791 757 1.253722176333514
791 759 -5.629306970840988E-1
791 760 5.2967115262034E-1
791 766 3.178797303921783
791 767 -9.692319304892809E-1
791 771 -3.712849612299509E1
791 787 -1.488095238030867
791 788 -3.880952379713087E-1
791 789 -1.9345238096038224
791 790 -2.275000000166078
791 791 6.2219108364327276E1
791 792 4.7765660156802564E-1
791 823 6.250000000150705E-1
791 836 4.047588035779274E-1
791 837 3.8561867829118934E-1
791 838 1.8936835232960733E-1
791 839 -1.9197950306548468
791 847 -1.18495232243002
791 848 3.9919478931426156
791 849 -1.0587499746935139E1
791 856 -2.0997900315090225
791 857 -2.805556243143004
791 858 1.694807470103928
791 875 2.6424356434112513
791 877 -8.968673499881765E-1
792 600 -2.4553571427762577
792 601 8.184523809176044E-1
792 622 -1.8521115058073794
792 623 1.0678906661819434E-1
792 624 5.001342992327862E-1
792 632 3.1693230895305176
792 633 2.232904741072366
792 634 -9.987573303930406
792 636 2.7208982337323477
792 637 -1.9454684371937674
792 638 -5.409931453720271
792 639 -1.6846614218435383
792 640 3.2533924888123655E-1
792 641 3.9852211228164325E-1
792 694 -9.37500000043168E-1
792 695 3.5238095245939566E-1
792 716 3.1249999999121186E-1
792 717 -3.880952379621329E-1
792 718 8.333333333888256E-1
792 720 -1.6147621167581175E1
792 729 -3.173237707580136
792 730 -7.668281894447652E-1
792 736 1.005306109558
792 737 -9.486490850449952E-2
792 738 -8.675247108695872E-2
792 739 1.6420223488191361
792 740 1.4271252705482267
792 745 -2.027599042193306
792 746 -4.0120425995397835E-2
792 747 2.9549356434131857
792 748 -1.1577411964482953
792 754 -1.5733972771200837
792 755 1.2537221763338444
792 756 1.8393778326109782
792 757 -5.31697033183022E-1
792 759 -2.7095952130603616
792 760 3.704800156767856
792 766 -2.6319653024870653
792 767 1.6732141009747916
792 770 -8.400031892246591E1
792 771 3.856186778988347E-1
792 787 -1.7857142857913617
792 788 -1.8571428574076156
792 791 4.7765660156802564E-1
792 792 1.1511093812702785E2
793 793 7.6087794978626
793 794 4.856449346242839E-2
793 795 -4.930011580143502E-1
793 796 -5.156704482597787
793 797 -4.25445671358459E-1
793 798 3.7874885531212793E-1
793 800 6.588541667207038E-1
793 801 -3.3854166666523675E-2
793 802 -1.692708333315138E-1
793 804 -3.228878340027769
793 805 1.3699441101086185E-1
793 806 -2.2417065371160033E-1
793 807 -1.4583333333491505E-1
793 808 1.0416666666623998E-1
793 809 -6.249999999985777E-1
793 814 -6.815476191353149E-1
793 815 -2.7083333333820825E-1
793 816 3.125000000021314E-1
793 827 -1.896707077468975
793 828 -3.7784475603892004E-2
793 829 -2.3989709891938216E-2
793 833 2.8420371879814597
793 834 4.781920758275537E-1
793 835 8.441834996337182E-1
794 793 4.856449346242839E-2
794 794 8.508728954285871
794 795 -1.1906239218974184
794 796 -3.629456713583804E-1
794 797 -5.565677866178386
794 798 9.18584020161773E-1
794 800 -1.3020833333269147E-2
794 801 7.088541667205864E-1
794 802 1.9531250000515737E-1
794 804 1.3699441101086224E-1
794 805 -3.71251395836678
794 806 9.450807973494678E-1
794 807 2.0833333332906864E-2
794 808 -4.958333333369629E-1
794 809 1.0416666666737815
794 814 -1.0416666667154198E-1
794 815 -2.815476191587166E-1
794 816 3.720238095260245E-1
794 827 -2.04451142270558E-1
794 828 -2.8293347535925903
794 829 -2.5296136998736973E-1
794 833 4.7819207582755413E-1
794 834 3.6673244096269775
794 835 -2.029082501831416
795 793 -4.930011580143502E-1
795 794 -1.1906239218974184
795 795 1.4307127058012671E1
795 796 -3.7917811354539754E-2
795 797 1.4394173534931383
795 798 -1.1372996212702194E1
795 800 -6.510416666413651E-2
795 801 1.9531250001068048E-1
795 802 1.646354166801678
795 804 1.9249601295506338E-1
795 805 3.4984270210714674E-1
795 806 -4.260206850017191
795 807 -3.1249999999928835E-1
795 808 5.208333333368932E-1
795 809 -1.8333333333485444E-1
795 814 3.125000000021309E-1
795 815 9.672619047683447E-1
795 816 -1.7101190478105017
795 827 -4.406563765586031E-1
795 828 -2.529613699873699E-1
795 829 -3.286102320542562
795 833 8.441834996337184E-1
795 834 -2.0290825018314145
795 835 4.859276539592956
796 793 -5.156704482597787
796 794 -3.629456713583804E-1
796 795 -3.7917811354539754E-2
796 796 6.288852783239537
796 797 -1.4538984629364157E-1
796 798 5.192135989017564E-1
796 804 8.829945090266762E-1
796 805 6.470287757542981E-1
796 806 -1.0439560439535647
796 811 -3.497319332984423E-1
796 812 -1.3159455128517555E-1
796 813 6.313415750884949E-1
796 814 -3.6947278914685544E-1
796 815 -3.9583333333376103E-1
796 816 -3.125000000021334E-1
796 820 -9.770107811496158E-2
796 821 -4.212454212404598E-2
796 822 1.373626373642918E-1
796 827 2.6902349242961043E-1
796 828 1.2454212454262E-1
796 829 2.1062271062023052E-1
796 833 -1.4672605015377773
796 834 3.063170440980856E-1
796 835 -1.0416666666453347E-1
797 793 -4.25445671358459E-1
797 794 -5.565677866178386
797 795 1.4394173534931383
797 796 -1.4538984629364157E-1
797 797 7.154322183032659
797 798 -1.9709487042934826
797 804 6.470287757542974E-1
797 805 1.8458754898154328
797 806 5.995879120980924E-1
797 811 1.4238782048236573E-2
797 812 2.154664653451865E-1
797 813 -2.520623561534762E-1
797 814 -2.2916666666709373E-1
797 815 -7.204931973423606E-1
797 816 -6.271258503634486E-1
797 820 -1.2545787545737933E-1
797 821 -3.7119581586206507E-1
797 822 -7.907509157525805E-1
797 827 -4.2124542124046455E-2
797 828 -2.2450598764424257E-1
797 829 1.1861263736288727
797 833 3.063170440980843E-1
797 834 -2.3337912711662256
797 835 4.157561873428843E-1
798 793 3.7874885531212793E-1
798 794 9.18584020161773E-1
798 795 -1.1372996212702194E1
798 796 5.192135989017564E-1
798 797 -1.9709487042934826
798 798 1.2178864707230403E1
798 804 -1.043956043953565
798 805 5.995879120980927E-1
798 806 6.622793935990718E-1
798 811 2.8335622710397307E-1
798 812 -1.2660448069840136E-1
798 813 2.203876334825105E-1
798 814 -3.125000000021319E-1
798 815 -1.2223639456057696
798 816 -5.164115646712498E-1
798 820 6.868131868214658E-2
798 821 -3.9537545787628947E-1
798 822 -1.3397054113628326E-1
798 827 6.272893772868983E-1
798 828 1.1861263736288723
798 829 1.2719287081523638E-2
798 833 -5.208333333312013E-1
798 834 1.010994282585204
798 835 -1.0508727028837823
799 689 1.2868303572039752
799 690 -5.468749999991403E-2
799 691 -2.7343749997602584E-1
799 696 3.142485118916754
799 774 1.6015624999933148E-1
799 775 8.007812499593252E-1
799 776 1.640624999992742E-1
799 777 4.036458333268587E-1
799 778 -2.460937499988588E-1
799 779 -6.054687499901583E-1
799 784 -3.906249999979329E-2
799 785 2.604166666652063E-2
799 786 5.468749999974113E-1
799 799 1.6484188988055248E1
799 800 1.0877976191286025
799 801 -1.0416666666560402E-2
799 802 -5.208333332103908E-2
799 803 -5.547061011703127
799 817 -7.696056547449041
799 818 -8.203124999963728E-1
799 819 -8.758184524152416
800 774 -5.208333333304115E-2
800 775 -2.6041666665579477E-1
800 778 1.09374999999482E-1
800 779 3.385416666626573E-1
800 784 1.302083333326931E-2
800 793 6.588541667207038E-1
800 794 -1.3020833333269147E-2
800 795 -6.510416666413651E-2
800 799 1.0877976191286025
800 800 1.9491071428548285E1
800 801 1.8749999999904798E-1
800 802 9.374999999811224E-1
800 803 3.8311011903975745
800 804 -8.61458333317231
800 805 -2.1874999999896783E-1
800 806 -6.770833333253268E-1
800 814 -9.098958333290092
800 815 -2.6041666666520982E-2
800 816 -5.46874999997409E-1
800 817 -7.3552827383327655
800 818 2.73437499998888E-1
801 774 1.1985119048424862
801 775 3.348214285771755E-1
801 778 3.641815476112364
801 779 5.022321428286252E-1
801 784 -7.40528273833265
801 793 -3.3854166666523675E-2
801 794 7.088541667205864E-1
801 795 1.9531250001068048E-1
801 799 -1.0416666666560402E-2
801 800 1.8749999999904798E-1
801 801 2.051964285711496E1
801 802 5.580357142841371
801 803 1.093749999994823E-1
801 804 -2.1874999999896796E-1
801 805 -9.664583333167354
801 806 -3.38541666662661
801 814 -6.770833333300214E-2
801 815 -8.998958333290394
801 816 -1.6927083333250321
801 817 3.385416666652424E-2
801 818 -1.5345982143062105
802 774 3.3482142858893826E-1
802 775 2.8056547621066894
802 778 -1.6741071431913607E-1
802 779 9.668601190279611
802 784 -8.649553571529256E-1
802 793 -1.692708333315138E-1
802 794 1.9531250000515737E-1
802 795 1.646354166801678
802 799 -5.208333332103908E-2
802 800 9.374999999811224E-1
802 801 5.580357142841371
802 802 4.73053571428059E1
802 803 4.427083333300351E-1
802 804 -8.854166666600838E-1
802 805 -4.427083333300391
802 806 -2.028958333293666E1
802 814 -5.4687499999741E-1
802 815 -6.510416666630137E-1
802 816 -2.27489583332254E1
802 817 2.7343749999889055E-1
802 818 -1.838742559583183E1
803 696 -5.934895833048294
803 718 1.2964015151416062
803 747 7.732345779405133E-1
803 748 5.170454545455943E-1
803 771 -2.2490530302112272E-1
803 774 -2.4609374999885836E-1
803 775 -9.179687499922249E-1
803 776 -8.072916667493925E-2
803 777 -1.8098958333196173
803 778 -5.437025051597809E-2
803 779 1.0391926843776766
803 782 -4.1927083333225085E-1
803 783 1.5494791666630907
803 784 2.187500000030497E-1
803 785 -4.3750000000704126E-1
803 786 3.1249999999170314E-1
803 787 5.606060606066917E-1
803 788 2.4526515151527106
803 789 -2.272727272724797E-1
803 790 -9.943181818164624E-1
803 799 -5.547061011703127
803 800 3.8311011903975745
803 801 1.093749999994823E-1
803 802 4.427083333300351E-1
803 803 3.0205534706155408E1
803 804 -5.381093144169842
803 805 7.073453181897158E-1
803 806 7.777946166601756E-1
803 810 -7.332217261843537
803 811 -3.113213445811818
803 812 3.9379591791431967E-1
803 813 -9.970482454432861E-1
803 817 -5.25446428565661
803 818 -1.562499999988443E-1
803 819 5.270833333150424
803 823 -1.1172614479396064E1
803 830 -2.0660280226643817
803 831 -4.4197006785574583E-1
803 832 -4.01342442563527E-2
803 833 1.8515527508465568
803 834 -1.9848341791483923E-1
803 835 -2.0888892545529147
803 836 -4.012275376867209E-1
803 837 6.55083496225434E-1
803 875 2.5729294106615903
804 778 7.073453181897162E-1
804 779 2.9244663131136234E-1
804 784 -4.375000000061101E-1
804 793 -3.228878340027769
804 794 1.3699441101086224E-1
804 795 1.9249601295506338E-1
804 796 8.829945090266762E-1
804 797 6.470287757542974E-1
804 798 -1.043956043953565
804 800 -8.61458333317231
804 801 -2.1874999999896796E-1
804 802 -8.854166666600838E-1
804 803 -5.381093144169842
804 804 2.5310771425079263E1
804 805 -1.3080242929356367E-1
804 806 -8.16982435467633E-2
804 807 -9.991054946106875E-2
804 808 -2.364796182708653E-1
804 809 9.706959706976315E-1
804 811 -4.197998779475605
804 812 -3.3910841791379925E-1
804 813 1.2704857454458858
804 814 -5.238095238058146
804 815 -1.165734160335229E-15
804 816 1.8041124079129348E-15
804 817 5.270833333254724
804 818 3.1249999999768907E-1
804 827 2.15811570057505
804 828 -4.299505151293662E-1
804 829 -7.623353364460386E-1
804 830 1.0822812452215441E-1
804 831 2.847925759325744E-1
804 832 -3.4173103653281645E-1
804 833 -6.970383708093129
804 834 1.642989972522377E-2
804 835 7.651296673163084E-2
805 778 -5.247374078365354
805 779 -1.5145913010680998
805 784 5.6708333331988925
805 793 1.3699441101086185E-1
805 794 -3.71251395836678
805 795 3.4984270210714674E-1
805 796 6.470287757542981E-1
805 797 1.8458754898154328
805 798 5.995879120980927E-1
805 800 -2.1874999999896783E-1
805 801 -9.664583333167354
805 802 -4.427083333300391
805 803 7.073453181897158E-1
805 804 -1.3080242929356367E-1
805 805 3.463764651974648E1
805 806 3.5044658010670506
805 807 -2.364796182708656E-1
805 808 6.900104336348671E-2
805 809 7.907509157525866E-1
805 811 -3.3910841791380064E-1
805 812 -3.3257191854883486
805 813 2.31877488109049
805 814 2.2065682692030913E-15
805 815 -1.3095238095145394E1
805 816 -2.510260151685399E-14
805 817 -4.3750000000610983E-1
805 818 1.562499999988439
805 827 -4.2995051512936644E-1
805 828 2.758917792522175
805 829 -1.6156069861311795
805 830 2.8479257593257346E-1
805 831 -1.7130430564171386
805 832 9.325437085142426E-1
805 833 1.6429899725223428E-2
805 834 -8.223802471696104
805 835 -2.5011843001183527
806 778 -1.7144539384341244
806 779 -1.0623062712624403E1
806 784 1.5624999999884353
806 793 -2.2417065371160033E-1
806 794 9.450807973494678E-1
806 795 -4.260206850017191
806 796 -1.0439560439535647
806 797 5.995879120980924E-1
806 798 6.622793935990718E-1
806 800 -6.770833333253268E-1
806 801 -3.38541666662661
806 802 -2.028958333293666E1
806 803 7.777946166601756E-1
806 804 -8.16982435467633E-2
806 805 3.5044658010670506
806 806 4.702116783926939E1
806 807 4.853479853488171E-1
806 808 3.9537545787629286E-1
806 809 -8.831287456469791E-3
806 811 1.2704857454458838
806 812 2.3187748810904854
806 813 -1.1062078966553855E1
806 814 2.84494648640051E-15
806 815 -2.3559850442704223E-14
806 816 -5.238095238058117
806 817 3.1249999999768796E-1
806 818 1.3170833333198145E1
806 827 -7.623353364460381E-1
806 828 -1.6156069861311786
806 829 5.1814426231069355
806 830 -1.333977032009068E-1
806 831 -1.0912295815953887E-1
806 832 1.6334626148557008
806 833 7.651296673162786E-2
806 834 -2.5011843001183487
806 835 -1.618732741638255E1
807 793 -1.4583333333491505E-1
807 794 2.0833333332906864E-2
807 795 -3.1249999999928835E-1
807 804 -9.991054946106875E-2
807 805 -2.364796182708656E-1
807 806 4.853479853488171E-1
807 807 1.4075960639012935E1
807 808 -2.213293273860994E-1
807 809 -2.4999999999999982
807 827 -1.2985920329729986E1
807 828 1.142720766408549E-16
807 829 1.6666666666666672
807 830 -7.465953483720087E-1
807 831 3.1151773686667994E-1
807 832 7.29166666665952E-1
807 865 -9.770107811495686E-2
807 866 1.2545787545737774E-1
807 867 -6.868131868215073E-2
808 793 1.0416666666623998E-1
808 794 -4.958333333369629E-1
808 795 5.208333333368932E-1
808 804 -2.364796182708653E-1
808 805 6.900104336348671E-2
808 806 3.9537545787629286E-1
808 807 -2.213293273860994E-1
808 808 1.422612796093788E1
808 809 -1.1657341758564144E-15
808 827 6.537501178381104E-17
808 828 -1.2985920329729986E1
808 829 -5.052255931818219E-15
808 830 3.1151773686667994E-1
808 831 -4.42179525372355E-1
808 832 -5.208333333368886E-1
808 865 4.2124542124044095E-2
808 866 -3.711958158620641E-1
808 867 -3.953754578762912E-1
809 793 -6.249999999985777E-1
809 794 1.0416666666737815
809 795 -1.8333333333485444E-1
809 804 9.706959706976315E-1
809 805 7.907509157525866E-1
809 806 -8.831287456469791E-3
809 807 -2.4999999999999982
809 808 -1.1657341758564144E-15
809 809 3.31305859501795E1
809 827 8.333333333333337E-1
809 828 -3.110106808497953E-15
809 829 -3.246480082432497E1
809 830 1.4583333333319077
809 831 -1.0416666666737784
809 832 -3.3964996392693764E-1
809 865 -1.3736263736429902E-1
809 866 -7.907509157525852E-1
809 867 -1.3397054113627394E-1
810 696 1.8593750000654068
810 703 9.951636905164443E-1
810 718 -1.0392857143487422
810 776 4.7395833335171794E-1
810 777 -1.2760416666834873
810 778 -4.192708333322518E-1
810 779 1.5494791666630892
810 780 -9.114583333379497E-2
810 781 4.5572916662188545E-1
810 782 2.4791666670019813E-1
810 783 -4.7395833330134407E-1
810 784 3.177083333351827E-1
810 785 -4.68750000032766E-1
810 786 -1.0937499999735976
810 787 4.083333333209679E-1
810 788 8.3333333351642E-2
810 789 -4.3749999999950584E-1
810 790 5.208333332876813E-2
810 803 -7.332217261843537
810 810 1.3687351190582412E1
810 811 -2.752976190124476E-1
810 812 -3.1250000009747814E-2
810 813 1.5624999998639655E-1
810 817 -3.2522321427617453
810 818 5.468750000066472E-1
810 819 -6.38839285749195
810 823 1.7455357142941594
811 778 3.937959179143212E-1
811 779 -9.970482454432898E-1
811 782 -1.5625000000993375E-1
811 783 7.812499999849745E-1
811 784 -4.2838541666795676E-1
811 789 4.012275376867219E-1
811 790 -3.0709814824091036E-1
811 796 -3.497319332984423E-1
811 797 1.4238782048236573E-2
811 798 2.8335622710397307E-1
811 803 -3.113213445811818
811 804 -4.197998779475605
811 805 -3.3910841791380064E-1
811 806 1.2704857454458838
811 810 -2.752976190124476E-1
811 811 1.1912384578530459E1
811 812 6.646698423612417E-1
811 813 -1.3889609300819876
811 814 -1.8493303571120083
811 815 3.04687500000893E-1
811 816 2.7343750000259825E-1
811 817 -1.844928075495894
811 818 -6.835937500056496E-1
811 823 2.572929410661588
811 833 -2.8548137789858314
811 834 -8.54875745419724E-1
811 835 7.681716012344102E-1
812 778 -3.00870732551213
812 779 2.6198411903764356
812 782 4.925595238453895E-1
812 783 -1.1160714283714149E-1
812 784 -2.307725694587313
812 789 2.051464959907267
812 790 -7.164777458777534E-1
812 796 -1.3159455128517555E-1
812 797 2.154664653451865E-1
812 798 -1.2660448069840136E-1
812 803 3.9379591791431967E-1
812 804 -3.3910841791379925E-1
812 805 -3.3257191854883486
812 806 2.3187748810904854
812 810 -3.1250000009747814E-2
812 811 6.646698423612417E-1
812 812 1.2724796824825246E1
812 813 -2.9062887801552875
812 814 1.796875000007064E-1
812 815 -2.56897321421775
812 816 -1.4601934523556128
812 817 -2.8255208333454407E-1
812 818 -1.1114211310172177
812 823 4.0122753768672137E-1
812 833 -8.548757454197239E-1
812 834 -4.273162354117547
812 835 1.4939766614744925
813 778 2.619841190376439
813 779 -8.241956060952116
813 782 -1.116071428489043E-1
813 783 1.4970238095896045
813 784 -1.781063988170499
813 789 7.862298673059831E-2
813 790 6.179900643834696
813 796 6.313415750884949E-1
813 797 -2.520623561534762E-1
813 798 2.203876334825105E-1
813 803 -9.970482454432861E-1
813 804 1.2704857454458858
813 805 2.31877488109049
813 806 -1.1062078966553855E1
813 810 1.5624999998639655E-1
813 811 -1.3889609300819876
813 812 -2.9062887801552875
813 813 2.3594018937797532E1
813 814 2.7343750000259726E-1
813 815 -2.5018601190176315
813 816 -3.9529017856747464
813 817 -6.835937500056504E-1
813 818 -4.0264756946472975
813 823 -6.550834962254319E-1
813 833 1.393171601232987
813 834 2.5356433281482706
813 835 -4.2079185168763305
814 784 1.744791666619072E-1
814 793 -6.815476191353149E-1
814 794 -1.0416666667154198E-1
814 795 3.125000000021309E-1
814 796 -3.6947278914685544E-1
814 797 -2.2916666666709373E-1
814 798 -3.125000000021319E-1
814 800 -9.098958333290092
814 801 -6.770833333300214E-2
814 802 -5.4687499999741E-1
814 804 -5.238095238058146
814 805 2.2065682692030913E-15
814 806 2.84494648640051E-15
814 811 -1.8493303571120083
814 812 1.796875000007064E-1
814 813 2.7343750000259726E-1
814 814 1.672438350334622E1
814 815 4.6875000009019785E-2
814 816 2.343749999920989E-1
814 817 5.130208333961978E-1
814 818 3.906250000271176E-2
815 784 6.505208334265106E-1
815 793 -2.7083333333820825E-1
815 794 -2.815476191587166E-1
815 795 9.672619047683447E-1
815 796 -3.9583333333376103E-1
815 797 -7.204931973423606E-1
815 798 -1.2223639456057696
815 800 -2.6041666666520982E-2
815 801 -8.998958333290394
815 802 -6.510416666630137E-1
815 804 -1.165734160335229E-15
815 805 -1.3095238095145394E1
815 806 -2.3559850442704223E-14
815 811 3.04687500000893E-1
815 812 -2.56897321421775
815 813 -2.5018601190176315
815 814 4.6875000009019785E-2
815 815 2.501468962572811E1
815 816 3.212691326504534
815 817 3.411458333285742E-1
815 818 1.953125000135597E-1
816 784 1.953125000135604E-1
816 793 3.125000000021314E-1
816 794 3.720238095260245E-1
816 795 -1.7101190478105017
816 796 -3.125000000021334E-1
816 797 -6.271258503634486E-1
816 798 -5.164115646712498E-1
816 800 -5.46874999997409E-1
816 801 -1.6927083333250321
816 802 -2.27489583332254E1
816 804 1.8041124079129348E-15
816 805 -2.510260151685399E-14
816 806 -5.238095238058117
816 811 2.7343750000259825E-1
816 812 -1.4601934523556128
816 813 -3.9529017856747464
816 814 2.343749999920989E-1
816 815 3.212691326504534
816 816 3.257846513597493E1
816 817 3.9062500002711394E-2
816 818 1.5880208334650825
817 774 -1.015624999995344E-1
817 775 -8.203124999963733E-1
817 778 2.1875000000304962E-1
817 779 -1.562499999988429E-1
817 782 2.135416666682561E-1
817 783 5.468750000066461E-1
817 784 -1.6796874998243422E-1
817 785 1.822916666562187E-1
817 786 7.81250000042194E-2
817 799 -7.696056547449041
817 800 -7.3552827383327655
817 801 3.385416666652424E-2
817 802 2.7343749999889055E-1
817 803 -5.25446428565661
817 804 5.270833333254724
817 805 -4.3750000000610983E-1
817 806 3.1249999999768796E-1
817 810 -3.2522321427617453
817 811 -1.844928075495894
817 812 -2.8255208333454407E-1
817 813 -6.835937500056504E-1
817 814 5.130208333961978E-1
817 815 3.411458333285742E-1
817 816 3.9062500002711394E-2
817 817 1.859306795628969E1
817 818 4.10156249990711E-1
817 819 1.0260416667554444
818 774 -1.348586309503706
818 775 -1.924248511862285E1
818 778 -7.812499999942095E-1
818 779 -9.20446428562824
818 782 -1.8043154761210447
818 783 -7.459374999812867
818 784 4.431733630919294
818 785 3.906250000210948E-1
818 786 3.1760416668628086
818 799 -8.203124999963728E-1
818 800 2.73437499998888E-1
818 801 -1.5345982143062105
818 802 -1.838742559583183E1
818 803 -1.562499999988443E-1
818 804 3.1249999999768907E-1
818 805 1.562499999988439
818 806 1.3170833333198145E1
818 810 5.468750000066472E-1
818 811 -6.835937500056496E-1
818 812 -1.1114211310172177
818 813 -4.0264756946472975
818 814 3.906250000271176E-2
818 815 1.953125000135597E-1
818 816 1.5880208334650825
818 817 4.10156249990711E-1
818 818 4.038532986101705E1
818 819 7.812500000421921E-2
819 689 -6.293154761639396
819 690 -1.354166666663205E-1
819 691 -1.0937499999968054
819 696 -9.51917989388228
819 703 -7.849578372490399
819 704 1.5390625000610942
819 705 1.9010416665106514E-1
819 706 1.1718750000271752E-1
819 718 2.5555555554839198
819 774 6.770833333300151E-2
819 775 5.468749999974104E-1
819 776 2.91666666604446E-1
819 777 -2.0833333324411984E-1
819 778 -4.3750000000704203E-1
819 779 3.1249999999170375E-1
819 780 2.4739583328580078E-1
819 781 8.203125000748035E-1
819 782 -3.4375000003257916E-1
819 783 -1.093749999973599
819 784 3.4895833332288595E-1
819 785 -2.291666665314396E-1
819 786 5.208333331939033E-1
819 787 4.018153865192886E-11
819 788 -5.023359506139968E-11
819 799 -8.758184524152416
819 803 5.270833333150424
819 810 -6.38839285749195
819 817 1.0260416667554444
819 818 7.812500000421921E-2
819 819 2.8416997354205556E1
820 796 -9.770107811496158E-2
820 797 -1.2545787545737933E-1
820 798 6.868131868214658E-2
820 820 1.4075960639012845E1
820 821 2.213293273861024E-1
820 822 2.4999999999999973
820 824 -9.991054946105421E-2
820 825 2.3647961827086597E-1
820 826 -4.8534798534880985E-1
820 827 -1.2985920329729899E1
820 828 -1.0171409037460745E-16
820 829 -1.6666666666666659
820 833 -7.465953483720318E-1
820 834 -3.115177368666818E-1
820 835 -7.291666666659571E-1
820 868 -1.4583333333489812E-1
820 869 -2.083333333290715E-2
820 870 3.1249999999928907E-1
821 796 -4.212454212404598E-2
821 797 -3.7119581586206507E-1
821 798 -3.9537545787628947E-1
821 820 2.213293273861024E-1
821 821 1.4226127960937784E1
821 822 2.248201624865942E-15
821 824 2.3647961827086567E-1
821 825 6.900104336350099E-2
821 826 3.9537545787629186E-1
821 827 -4.4563457523648044E-17
821 828 -1.2985920329729899E1
821 829 -2.8112977670569396E-15
821 833 -3.115177368666817E-1
821 834 -4.421795253723761E-1
821 835 -5.2083333333689E-1
821 868 -1.0416666666624039E-1
821 869 -4.958333333369458E-1
821 870 5.208333333368881E-1
822 796 1.373626373642918E-1
822 797 -7.907509157525805E-1
822 798 -1.3397054113628326E-1
822 820 2.4999999999999973
822 821 2.248201624865942E-15
822 822 3.313058595017926E1
822 824 -9.706959706976197E-1
822 825 7.907509157525837E-1
822 826 -8.831287456443772E-3
822 827 -8.333333333333331E-1
822 828 -1.8755928260039762E-15
822 829 -3.246480082432475E1
822 833 -1.4583333333319142
822 834 -1.04166666667378
822 835 -3.3964996392697366E-1
822 868 6.249999999985781E-1
822 869 1.0416666666737762
822 870 -1.8333333333481255E-1
823 718 -1.843614718610141
823 747 -4.208062770530395
823 748 4.7727272727248127E-1
823 754 -2.406250000089461
823 755 6.562500000073372E-1
823 771 -2.130681818179265
823 778 -2.272727272724788E-1
823 779 -9.943181818164639E-1
823 782 -4.374999999995056E-1
823 783 5.729166666600326E-1
823 787 -1.9886363634887333E-1
823 788 -8.049242424023143E-1
823 789 -4.6363651012387E-2
823 790 1.4424597776796997
823 791 6.250000000150705E-1
823 803 -1.1172614479396064E1
823 810 1.7455357142941594
823 811 2.572929410661588
823 812 4.0122753768672137E-1
823 813 -6.550834962254319E-1
823 823 2.1354564062730397E1
823 824 -1.2493967157696109
823 825 -3.792203181843363E-1
823 826 -1.012169616645211
823 830 1.851552750846542
823 831 1.9848341791483698E-1
823 832 2.088889254552913
823 833 -2.0660280226643652
823 834 4.4197006785574733E-1
823 835 4.013424425635431E-2
823 836 -4.484834179148389E-1
823 837 1.0361107454428176
823 838 -4.375000000047053E-1
823 839 -2.0833333333820186E-1
823 875 -4.278019993424572
823 877 -3.0059523804807414E-1
824 789 -3.792203181843341E-1
824 790 -5.26821631296399E-1
824 820 -9.991054946105421E-2
824 821 2.3647961827086567E-1
824 822 -9.706959706976197E-1
824 823 -1.2493967157696109
824 824 1.704737856827854E1
824 825 -5.254475707171842E-1
824 826 5.504482435168507E-1
824 827 2.1581157005750042
824 828 4.299505151293691E-1
824 829 7.623353364460411E-1
824 830 -6.970383708093104
824 831 -1.6429899725220666E-2
824 832 -7.651296673163074E-2
824 833 1.0822812452212119E-1
824 834 -2.847925759325822E-1
824 835 3.417310365328123E-1
824 836 4.48483417914839E-1
824 837 -1.3486107454449496
824 838 8.75000000009405E-1
824 839 4.1666666667640223E-1
824 865 4.068040328398667E-1
824 866 -6.470287757543032E-1
824 867 1.0439560439535582
824 868 -3.2288783400257555
824 869 -1.369944110108543E-1
824 870 -1.9249601295506688E-1
824 875 -3.0588618747193603
824 877 -5.113095238146642
825 789 -5.478205071595434E-1
825 790 -3.427163011166056E-1
825 820 2.3647961827086597E-1
825 821 6.900104336350099E-2
825 822 7.907509157525837E-1
825 823 -3.792203181843363E-1
825 824 -5.254475707171842E-1
825 825 2.523853937733446E1
825 826 1.1607158011771261
825 827 4.299505151293703E-1
825 828 2.758917792522127
825 829 -1.6156069861311668
825 830 -1.6429899725221176E-2
825 831 -8.223802471696102
825 832 -2.5011843001183602
825 833 -2.8479257593258206E-1
825 834 -1.7130430564171895
825 835 9.325437085142328E-1
825 836 -2.3544394235984676
825 837 2.7093998810858384
825 838 -1.2170238095335405E1
825 839 -2.0833333333820123
825 865 -6.470287757543031E-1
825 866 6.553992993484066E-1
825 867 5.995879120980675E-1
825 868 -1.3699441101085222E-1
825 869 -3.7125139583617894
825 870 3.4984270212029633E-1
825 875 4.4848341791483853E-1
825 877 8.750000000094047E-1
826 789 -5.425789384760692E-1
826 790 -5.663662844245911E-1
826 820 -4.8534798534880985E-1
826 821 3.9537545787629186E-1
826 822 -8.831287456443772E-3
826 823 -1.012169616645211
826 824 5.504482435168507E-1
826 825 1.1607158011771261
826 826 2.6907774982869228E1
826 827 7.623353364460395E-1
826 828 -1.6156069861311657
826 829 5.181442623106792
826 830 -7.651296673162833E-2
826 831 -2.501184300118358
826 832 -1.618732741638245E1
826 833 1.3339770320089936E-1
826 834 -1.0912295815954909E-1
826 835 1.6334626148556524
826 836 2.709399881085845
826 837 -7.947942061795937
826 838 -1.0416666667082386
826 839 -4.93809523816938
826 865 1.0439560439535582
826 866 5.99587912098076E-1
826 867 1.8608891741225436E-1
826 868 2.2417065371160116E-1
826 869 9.450807973560411E-1
826 870 -4.260206850015125
826 875 -1.348610745444951
826 877 2.083333333416482E-1
827 793 -1.896707077468975
827 794 -2.04451142270558E-1
827 795 -4.406563765586031E-1
827 796 2.6902349242961043E-1
827 797 -4.2124542124046455E-2
827 798 6.272893772868983E-1
827 804 2.15811570057505
827 805 -4.2995051512936644E-1
827 806 -7.623353364460381E-1
827 807 -1.2985920329729986E1
827 808 6.537501178381104E-17
827 809 8.333333333333337E-1
827 820 -1.2985920329729899E1
827 821 -4.4563457523648044E-17
827 822 -8.333333333333331E-1
827 824 2.1581157005750042
827 825 4.299505151293703E-1
827 826 7.623353364460395E-1
827 827 3.41096406462904E1
827 828 9.492406860545088E-15
827 829 -1.7889872701707733E-14
827 830 -4.599332108950882
827 831 5.922771152758739E-1
827 832 -2.336385576375121
827 833 -4.599332108950996
827 834 -5.922771152758821E-1
827 835 2.3363855763751333
827 865 2.690234924296016E-1
827 866 4.212454212404464E-2
827 867 -6.272893772868893E-1
827 868 -1.8967070774689296
827 869 2.044511422705545E-1
827 870 4.406563765585982E-1
828 793 -3.7784475603892004E-2
828 794 -2.8293347535925903
828 795 -2.529613699873699E-1
828 796 1.2454212454262E-1
828 797 -2.2450598764424257E-1
828 798 1.1861263736288723
828 804 -4.299505151293662E-1
828 805 2.758917792522175
828 806 -1.6156069861311786
828 807 1.142720766408549E-16
828 808 -1.2985920329729986E1
828 809 -3.110106808497953E-15
828 820 -1.0171409037460745E-16
828 821 -1.2985920329729899E1
828 822 -1.8755928260039762E-15
828 824 4.299505151293691E-1
828 825 2.758917792522127
828 826 -1.6156069861311657
828 827 9.492406860545088E-15
828 828 3.5235538683523E1
828 829 -2.891637046561744
828 830 5.922771152758741E-1
828 831 -4.336926063316835
828 832 2.1282605057705433
828 833 -5.922771152758814E-1
828 834 -4.3369260633169455
828 835 2.1282605057705726
828 865 -1.2454212454262242E-1
828 866 -2.245059876442524E-1
828 867 1.186126373628881
828 868 3.7784475603888854E-2
828 869 -2.829334753592546
828 870 -2.529613699874059E-1
829 793 -2.3989709891938216E-2
829 794 -2.5296136998736973E-1
829 795 -3.286102320542562
829 796 2.1062271062023052E-1
829 797 1.1861263736288727
829 798 1.2719287081523638E-2
829 804 -7.623353364460386E-1
829 805 -1.6156069861311795
829 806 5.1814426231069355
829 807 1.6666666666666672
829 808 -5.052255931818219E-15
829 809 -3.246480082432497E1
829 820 -1.6666666666666659
829 821 -2.8112977670569396E-15
829 822 -3.246480082432475E1
829 824 7.623353364460411E-1
829 825 -1.6156069861311668
829 826 5.181442623106792
829 827 -1.7889872701707733E-14
829 828 -2.891637046561744
829 829 7.616978275998274E1
829 830 -2.3363855763751222
829 831 2.128260505770545
829 832 -7.528150145312267
829 833 2.3363855763751356
829 834 2.1282605057705735
829 835 -7.528150145312498
829 865 -2.1062271062022042E-1
829 866 1.1861263736288818
829 867 1.2719287081507451E-2
829 868 2.3989709891929445E-2
829 869 -2.529613699874048E-1
829 870 -3.2861023205424624
830 778 -4.4197006785574555E-1
830 779 -7.693009109223081E-1
830 789 1.9848341791483692E-1
830 790 2.0888892545529116
830 803 -2.0660280226643817
830 804 1.0822812452215441E-1
830 805 2.8479257593257346E-1
830 806 -1.333977032009068E-1
830 807 -7.465953483720087E-1
830 808 3.1151773686667994E-1
830 809 1.4583333333319077
830 823 1.851552750846542
830 824 -6.970383708093104
830 825 -1.6429899725221176E-2
830 826 -7.651296673162833E-2
830 827 -4.599332108950882
830 828 5.922771152758741E-1
830 829 -2.3363855763751222
830 830 2.1602921295873987E1
830 831 -9.990375039030992E-1
830 832 1.4848963368806751
830 833 -7.700325890620014
830 834 4.676396538435324E-15
830 835 1.820539383593378E-15
830 836 8.548757454197353E-1
830 837 -1.3931716012330115
830 865 -1.467260501537796
830 866 -3.063170440980802E-1
830 867 5.20833333331204E-1
830 868 2.8420371879814157
830 869 -4.781920758275578E-1
830 870 -8.44183499633721E-1
830 875 -2.8548137789859176
831 778 -1.7467236361712202
831 779 6.622846675426409E-1
831 789 2.8892523159953636
831 790 -8.977997374877449E-1
831 803 -4.4197006785574583E-1
831 804 2.847925759325744E-1
831 805 -1.7130430564171386
831 806 -1.0912295815953887E-1
831 807 3.1151773686667994E-1
831 808 -4.42179525372355E-1
831 809 -1.0416666666737784
831 823 1.9848341791483698E-1
831 824 -1.6429899725220666E-2
831 825 -8.223802471696102
831 826 -2.501184300118358
831 827 5.922771152758739E-1
831 828 -4.336926063316835
831 829 2.128260505770545
831 830 -9.990375039030992E-1
831 831 2.4954148589263642E1
831 832 -4.1222629063281
831 833 4.1389590856146196E-15
831 834 -8.4410969366284
831 835 4.363936286552232
831 836 -4.273162354117651
831 837 2.5356433281482937
831 865 -3.0631704409807947E-1
831 866 -2.33379127116626
831 867 1.0109942825852112
831 868 -4.781920758275582E-1
831 869 3.6673244096269544
831 870 -2.0290825018314043
831 875 8.548757454197348E-1
832 778 7.366894294480721E-1
832 779 -2.8339235113634316
832 789 -8.977997374877438E-1
832 790 4.477017175545319
832 803 -4.01342442563527E-2
832 804 -3.4173103653281645E-1
832 805 9.325437085142426E-1
832 806 1.6334626148557008
832 807 7.29166666665952E-1
832 808 -5.208333333368886E-1
832 809 -3.3964996392693764E-1
832 823 2.088889254552913
832 824 -7.651296673163074E-2
832 825 -2.5011843001183602
832 826 -1.618732741638245E1
832 827 -2.336385576375121
832 828 2.1282605057705433
832 829 -7.528150145312267
832 830 1.4848963368806751
832 831 -4.1222629063281
832 832 4.1254941438752574E1
832 833 3.408271497203291E-15
832 834 4.363936286552233
832 835 -2.0076855512001075E1
832 836 1.4939766614745142
832 837 -4.207918516876477
832 865 1.0416666666453703E-1
832 866 4.1575618734288927E-1
832 867 -1.050872702883796
832 868 -8.441834996337207E-1
832 869 -2.0290825018314034
832 870 4.859276539592837
832 875 -7.681716012344344E-1
833 778 -1.9848341791483998E-1
833 779 -2.088889254552911
833 789 4.41970067855746E-1
833 790 7.693009109223118E-1
833 793 2.8420371879814597
833 794 4.7819207582755413E-1
833 795 8.441834996337184E-1
833 796 -1.4672605015377773
833 797 3.063170440980843E-1
833 798 -5.208333333312013E-1
833 803 1.8515527508465568
833 804 -6.970383708093129
833 805 1.6429899725223428E-2
833 806 7.651296673162786E-2
833 811 -2.8548137789858314
833 812 -8.548757454197239E-1
833 813 1.393171601232987
833 820 -7.465953483720318E-1
833 821 -3.115177368666817E-1
833 822 -1.4583333333319142
833 823 -2.0660280226643652
833 824 1.0822812452212119E-1
833 825 -2.8479257593258206E-1
833 826 1.3339770320089936E-1
833 827 -4.599332108950996
833 828 -5.922771152758814E-1
833 829 2.3363855763751356
833 830 -7.700325890620014
833 831 4.1389590856146196E-15
833 832 3.408271497203291E-15
833 833 2.160292129587401E1
833 834 9.990375039030993E-1
833 835 -1.4848963368806576
834 778 2.889252315995374
834 779 -8.977997374877451E-1
834 789 -1.7467236361711946
834 790 6.622846675426295E-1
834 793 4.781920758275537E-1
834 794 3.6673244096269775
834 795 -2.0290825018314145
834 796 3.063170440980856E-1
834 797 -2.3337912711662256
834 798 1.010994282585204
834 803 -1.9848341791483923E-1
834 804 1.642989972522377E-2
834 805 -8.223802471696104
834 806 -2.5011843001183487
834 811 -8.54875745419724E-1
834 812 -4.273162354117547
834 813 2.5356433281482706
834 820 -3.115177368666818E-1
834 821 -4.421795253723761E-1
834 822 -1.04166666667378
834 823 4.4197006785574733E-1
834 824 -2.847925759325822E-1
834 825 -1.7130430564171895
834 826 -1.0912295815954909E-1
834 827 -5.922771152758821E-1
834 828 -4.3369260633169455
834 829 2.1282605057705735
834 830 4.676396538435324E-15
834 831 -8.4410969366284
834 832 4.363936286552233
834 833 9.990375039030993E-1
834 834 2.4954148589263628E1
834 835 -4.122262906328073
835 778 -8.97799737487746E-1
835 779 4.477017175545357
835 789 7.366894294480629E-1
835 790 -2.8339235113633823
835 793 8.441834996337182E-1
835 794 -2.029082501831416
835 795 4.859276539592956
835 796 -1.0416666666453347E-1
835 797 4.157561873428843E-1
835 798 -1.0508727028837823
835 803 -2.0888892545529147
835 804 7.651296673163084E-2
835 805 -2.5011843001183527
835 806 -1.618732741638255E1
835 811 7.681716012344102E-1
835 812 1.4939766614744925
835 813 -4.2079185168763305
835 820 -7.291666666659571E-1
835 821 -5.2083333333689E-1
835 822 -3.3964996392697366E-1
835 823 4.013424425635431E-2
835 824 3.417310365328123E-1
835 825 9.325437085142328E-1
835 826 1.6334626148556524
835 827 2.3363855763751333
835 828 2.1282605057705726
835 829 -7.528150145312498
835 830 1.820539383593378E-15
835 831 4.363936286552232
835 832 -2.0076855512001075E1
835 833 -1.4848963368806576
835 834 -4.122262906328073
835 835 4.125494143875263E1
836 736 -3.525446316301157
836 737 -6.076682621723859E-1
836 747 -2.6326548314485704E-1
836 748 -2.148672081881411
836 749 -7.652170309478404E-1
836 754 2.500000000034709E-1
836 755 9.640466968627698E-1
836 765 1.684028475393072
836 767 1.8914084518241263
836 771 -8.209919307683264E-1
836 772 -5.685475358221379E-1
836 773 -4.2442763888544177E-1
836 778 2.051464959907264
836 779 -7.164777458777523E-1
836 789 -4.98244244454367
836 790 2.424528690378757
836 791 4.047588035779274E-1
836 803 -4.012275376867209E-1
836 823 -4.484834179148389E-1
836 824 4.48483417914839E-1
836 825 -2.3544394235984676
836 826 2.709399881085845
836 830 8.548757454197353E-1
836 831 -4.273162354117651
836 832 1.4939766614745142
836 836 5.618397481125916E1
836 837 -3.054596600820367
836 838 -2.8646153942258206E1
836 839 -2.4770312763810174
836 865 8.418810096160172E-1
836 866 -8.866602706970186E-1
836 867 2.0589179905660718E-1
836 875 -1.2120752618668946
836 876 2.1424777542248172E-1
836 877 -2.3260923190384103E-1
836 878 -5.982204237282254E-1
836 879 2.875700675264298E-1
836 880 -1.8616497049022573
836 884 -1.735283198176158
836 885 -3.439321383684101E-1
836 886 1.4853973023691345
836 889 1.076016112409913
836 890 -3.972538993780174
836 891 -9.011029377791675E-1
836 909 -3.071193682021591
836 910 -1.549886619391168
836 923 1.4206192899921544
836 924 1.9482526084179228
836 925 -1.3896246911024446
836 926 -5.279738456320869
836 927 3.2210544514257204
836 932 -1.4794274808085441
836 959 -2.149347115318351E-1
836 960 -8.547481858370174E-1
837 736 -6.076682621723859E-1
837 737 -1.8705899407119277
837 747 -1.6477657429485733
837 748 -8.209919307800315E-1
837 749 -1.4537321535126704
837 754 2.6424356434112517
837 755 4.047588035779277E-1
837 765 -1.8656483727027218
837 767 8.20730035813733E-1
837 771 -1.386592893945322
837 772 -1.0940704960386969
837 773 -1.4344716112210976
837 778 7.862298673060075E-2
837 779 6.179900643834692
837 789 2.4245286903787546
837 790 -1.0394262608565686E1
837 791 3.8561867829118934E-1
837 803 6.55083496225434E-1
837 823 1.0361107454428176
837 824 -1.3486107454449496
837 825 2.7093998810858384
837 826 -7.947942061795937
837 830 -1.3931716012330115
837 831 2.5356433281482937
837 832 -4.207918516876477
837 836 -3.054596600820367
837 837 1.099210353360772E2
837 838 -2.4770312763810107
837 839 -7.001453965625055E1
837 865 -1.500482200052107
837 866 3.2224939978947265E-1
837 867 3.8909423085263733E-1
837 875 3.2346254967379737
837 876 4.994955881030184E-1
837 877 -2.165484914063673
837 878 -3.495461136271605
837 879 -1.8616497049022573
837 880 -8.140924416335703E-2
837 884 2.273494778098062
837 885 1.4853973023691343
837 886 8.058237513258277E-1
837 889 2.379332784249436
837 890 -1.421936271110557
837 891 -6.1315414002031305
837 909 -2.3125354289098117
837 910 -6.168821624380539
837 923 1.9482526084179241
837 924 -1.8994078484200887
837 925 7.930077024680267E-1
837 926 3.22105445142572
837 927 -9.50358965296662
837 932 3.359614419119209
837 959 5.360405956795617E-1
837 960 -1.479427480808547
838 736 -2.8596817470025826
838 737 5.799360071965525E-1
838 754 -3.9269526509727615E-1
838 755 -2.069023987673255
838 767 1.906373657290229
838 789 -1.0577380951357924
838 790 -6.696428571166304E-1
838 791 1.8936835232960733E-1
838 823 -4.375000000047053E-1
838 824 8.75000000009405E-1
838 825 -1.2170238095335405E1
838 826 -1.0416666667082386
838 836 -2.8646153942258206E1
838 837 -2.4770312763810107
838 838 5.907860134450938E1
838 839 4.298533662199191
838 847 -7.65921768983517E-1
838 848 -5.821102339592695E-1
838 849 4.303004557762188E-1
838 850 2.1523995632260468E-1
838 851 -3.074469798643104
838 852 1.5508421821342155
838 856 1.6832721530057335
838 857 1.4324071758812689
838 858 -1.9464312590573967
838 859 -1.3896847373505385
838 860 -5.345768943902776
838 861 -3.408137692049271
838 865 2.500000000015311E-1
838 866 1.0714285713288316
838 867 -1.5625000000205045
838 868 7.597656250044851E-1
838 869 2.0566716225698597E-2
838 870 1.2021019345323318
838 875 -2.3260923190384114E-1
838 877 -9.97135725270856E-1
838 878 -5.25633530383085E-1
838 879 -6.623714252069415E-1
838 880 1.8616497049302816
838 881 -1.7939602041196459
838 882 -3.904429086673419E-1
838 883 -1.4654953840388731
838 898 1.0748958254113792
838 899 -3.972382315684391
838 900 9.012456566867746E-1
838 932 1.5569271795867512
838 959 -2.294067539319032E-1
838 960 -7.726223144761096E-1
839 736 5.799360071965536E-1
839 737 -1.5806287801868542
839 754 -1.1052006833229333
839 755 1.8936835232938054E-1
839 767 -8.650353536366668E-1
839 789 -1.3392857142505026
839 790 -3.880952380366991E-1
839 791 -1.9197950306548468
839 823 -2.0833333333820186E-1
839 824 4.1666666667640223E-1
839 825 -2.0833333333820123
839 826 -4.93809523816938
839 836 -2.4770312763810174
839 837 -7.001453965625055E1
839 838 4.298533662199191
839 839 9.893696163758611E1
839 847 1.4543418419452003
839 848 1.099943312909977
839 849 -1.4404029224740948
839 850 -4.999146237133191E-1
839 851 2.313490991665033
839 852 -6.179429477749461
839 856 1.8666053147070278
839 857 -1.9464312590573978
839 858 -1.885528954879667
839 859 -8.765563792227988E-1
839 860 -3.408137692049271
839 861 -9.219238092134875
839 865 1.8749999999925606
839 866 -1.5625000000205116
839 867 4.28571428428092E-1
839 868 -8.365885416664673E-1
839 869 9.602864583386395E-1
839 870 7.824714781451423E-1
839 875 -2.1654849140636716
839 877 2.592426470682551
839 878 3.495461136268753
839 879 1.8616497049302816
839 880 -5.3527279789959E-1
839 881 -2.29074992085158
839 882 -1.4654953840388736
839 883 7.983021792855773E-1
839 898 -2.3806327667841463
839 899 1.4220789900237771
839 900 -6.134366633940886
839 932 3.2890860989320165
839 959 -4.7200491367270875E-1
839 960 1.5569271795867516
840 840 8.867102648861293
840 853 1.2398115954326798
840 854 -1.4080003394986467
840 855 4.021735162983537E-1
840 859 -1.437224917814595
840 860 -1.6099944618336872
840 861 -4.6621099612105826E-1
840 871 -4.631007214442415E-2
840 872 -1.815311845370809E-1
840 873 2.588926288652595E-1
840 881 -2.4263720162231514E-1
840 882 -1.8692778141244457
840 883 -7.136605969525862E-1
840 887 3.770172688304163E-1
840 888 7.472406922247297E-1
840 895 -8.644546799816866E-2
840 896 -2.2767679476447507
840 897 -1.1445779380799568
840 939 3.371051527244572E-1
840 940 -4.49521470893088E-1
840 941 1.5479652410757785
840 948 -1.4131635740805057E-1
840 949 -1.0720094303295937
840 950 -6.318225473105199E-1
841 841 2.1595514713936073E1
841 842 2.4806935387803652E-1
841 843 -2.149925403853935
841 844 4.277200871175217E-1
841 845 -6.300874683347324E-2
841 846 5.936089151093711E-1
841 847 -1.752781562291207
841 848 1.5650437341749993E-1
841 849 -1.2465787216830742
841 850 -2.0428557435335804E1
841 851 -3.1300874683499985E-1
841 852 2.493157443366152
841 856 -1.4335935416182282
841 857 1.8186172550468746E-1
841 858 -4.1764666468795714E-1
841 859 8.787843719534165E-1
841 860 -1.9806860655790037E-1
841 861 4.5486587504178344E-1
841 871 7.129133662382339E-1
841 872 -1.2349352573850392E-2
841 873 2.7251855670765984E-1
842 841 2.4806935387803652E-1
842 842 2.1982863569857724E1
842 843 -5.06666740569935
842 844 6.1991253167407334E-2
842 845 8.444072403485425E-1
842 846 -5.198239150170831E-1
842 847 2.190043734179404E-1
842 848 -1.725469209745746
842 849 5.559159357920231E-1
842 850 -4.380087468358808E-1
842 851 -2.0483182140426727E1
842 852 3.6500728902990027
842 856 1.818617255046875E-1
842 857 -2.1026656100864454
842 858 9.709485539153525E-1
842 859 -1.9806860655790026E-1
842 860 5.836327838123994E-1
842 861 6.578687173415894E-1
842 871 -7.484935257429072E-2
842 872 9.004133662402559E-1
842 873 -2.4831477663153356E-1
843 841 -2.149925403853935
843 842 -5.06666740569935
843 843 5.095771580002393E1
843 844 1.1872178304484277E-1
843 845 -3.7182192585193363E-1
843 846 1.9989180839821887
843 847 -1.2465787216830755
843 848 -1.1372692134173612E-1
843 849 -5.0824187679823405
843 850 2.4931574433661523
843 851 2.6084062236249967
843 852 -4.967046386383087E1
843 856 -8.536763554001068E-1
843 857 1.72539505367747
843 858 -2.9843996239548973
843 859 9.297530071063114E-1
843 860 1.5515333948504455
843 861 2.5677928695771786
843 871 7.085482474198102E-1
843 872 -3.3311841925989133E-1
843 873 2.2128555021848215
844 625 -9.13311212170103E-2
844 719 4.538924445020979E-1
844 720 -1.3616773333888759
844 729 3.58404965920813E-1
844 730 -4.432782947226641E-1
844 758 6.2487990362344675E-2
844 759 -1.8659960354196967
844 760 2.17943707073867E-1
844 766 -1.7856583731531186
844 841 4.277200871175217E-1
844 842 6.1991253167407334E-2
844 843 1.1872178304484277E-1
844 844 1.3677112686932656E1
844 845 1.71403826632146E-1
844 846 -1.294381489791347
844 847 -1.1369445594459389E1
844 848 -3.269155606107289E-1
844 849 2.042516000082869
844 856 8.537792386196815E-1
844 857 -3.914970709664944E-1
844 858 4.842068902730776E-1
845 625 7.140445270949952E-1
845 719 -4.8587065496591897E-1
845 720 7.135643457919727E-1
845 729 -2.8986800114355478
845 730 1.3187221866361285
845 758 9.616887878426929E-2
845 759 3.42943707074748E-1
845 760 -1.7632279020942878
845 766 3.5840496592081356E-1
845 841 -6.300874683347324E-2
845 842 8.444072403485425E-1
845 843 -3.7182192585193363E-1
845 844 1.71403826632146E-1
845 845 1.4202613743484102E1
845 846 -4.695143640753501
845 847 -5.144155606120093E-1
845 848 -1.1523597794447468E1
845 849 3.096320147961891
845 856 -3.914970709664945E-1
845 857 4.2444019704966446E-1
845 858 4.2422954118136136E-1
846 625 -4.0890623295587664E-1
846 719 1.7105807192579285
846 720 -5.503063981904649
846 729 2.210771794834705
846 730 -3.4706056997636994
846 758 -6.484177773526256E-2
846 759 -1.3616773333888776
846 760 -3.0483273241454056E-2
846 766 -9.18165426787192E-1
846 841 5.936089151093711E-1
846 842 -5.198239150170831E-1
846 843 1.9989180839821887
846 844 -1.294381489791347
846 845 -4.695143640753501
846 846 2.9736373571587542E1
846 847 2.0425160000828706
846 848 2.1290582431869787
846 849 -2.7166503146115637E1
846 856 1.002941112510438
846 857 1.3145270239462308
846 858 2.6943004529563264
847 720 -1.9452533333002453E-1
847 729 1.4773228399010316
847 730 -4.342988312891316E-2
847 754 -4.7397772882797495
847 755 7.349758450540183E-1
847 759 -1.1162511031693159
847 760 -7.114933636055552E-1
847 766 1.349031337009267
847 791 -1.18495232243002
847 838 -7.65921768983517E-1
847 839 1.4543418419452003
847 841 -1.752781562291207
847 842 2.190043734179404E-1
847 843 -1.2465787216830755
847 844 -1.1369445594459389E1
847 845 -5.144155606120093E-1
847 846 2.0425160000828706
847 847 2.4332939006073104E1
847 848 1.2077934214862243
847 849 -6.967287408016556E-1
847 850 -9.809458228075209E-1
847 851 -3.353936072200253E-2
847 852 -1.78082674512999E-1
847 856 -4.9205239003369625
847 857 -1.6137264259361292
847 858 4.7439833858616E-2
847 877 -8.022450717382243E-1
848 720 -5.57075841724501E-1
848 729 7.10925397348171E-1
848 730 -5.862392221340326E-1
848 754 1.0474758450527384
848 755 -6.721868908301417
848 759 -2.11493363605555E-1
848 760 7.354681177804256E-1
848 766 1.4773228399010303
848 791 3.9919478931426156
848 838 -5.821102339592695E-1
848 839 1.099943312909977
848 841 1.5650437341749993E-1
848 842 -1.725469209745746
848 843 -1.1372692134173612E-1
848 844 -3.269155606107289E-1
848 845 -1.1523597794447468E1
848 846 2.1290582431869787
848 847 1.2077934214862243
848 848 2.7724874030539482E1
848 849 -6.269150839280842
848 850 -5.335393607220018E-1
848 851 7.756807232541061E-1
848 852 -3.351242540447499E-1
848 856 -1.6137264259361284
848 857 -9.393902122468283
848 858 6.403676292862903E-1
848 877 -1.2034217689830764
849 720 1.975404861282012
849 729 -5.862392221340343E-1
849 730 3.51818940746129
849 754 -1.1849523224300211
849 755 3.024685988367705
849 759 -1.9452533333002275E-1
849 760 -5.570758417245001E-1
849 766 -4.342988312891172E-2
849 791 -1.0587499746935139E1
849 838 4.303004557762188E-1
849 839 -1.4404029224740948
849 841 -1.2465787216830742
849 842 5.559159357920231E-1
849 843 -5.0824187679823405
849 844 2.042516000082869
849 845 3.096320147961891
849 846 -2.7166503146115637E1
849 847 -6.967287408016556E-1
849 848 -6.269150839280842
849 849 4.4223812643277924E1
849 850 -1.780826745130002E-1
849 851 -3.3512425404475055E-1
849 852 1.8493814841954728
849 856 4.743983385861485E-2
849 857 6.403676292862892E-1
849 858 -7.289963812709487
849 877 1.4543418419452
850 838 2.1523995632260468E-1
850 839 -4.999146237133191E-1
850 841 -2.0428557435335804E1
850 842 -4.380087468358808E-1
850 843 2.4931574433661523
850 847 -9.809458228075209E-1
850 848 -5.335393607220018E-1
850 849 -1.780826745130002E-1
850 850 3.0476648144541095E1
850 851 1.4314582484474285
850 852 -2.807563109083998
850 856 9.187986853147617E-1
850 857 1.4786422248153914
850 858 -2.135210805591014E-2
850 859 -3.474980609150766
850 860 -1.6104136494586863
850 861 2.32549332630113E-2
850 871 -1.3823233967076693
850 872 -5.248474843098175E-2
850 873 -6.949223195772622E-1
850 877 -1.7914768917976436
850 898 -3.3371626740564495
850 899 -4.908939241378742E-1
850 900 1.685422458314326
851 838 -3.074469798643104
851 839 2.313490991665033
851 841 -3.1300874683499985E-1
851 842 -2.0483182140426727E1
851 843 2.6084062236249967
851 847 -3.353936072200253E-2
851 848 7.756807232541061E-1
851 849 -3.3512425404475055E-1
851 850 1.4314582484474285
851 851 3.1564524845355656E1
851 852 -5.355006008397776
851 856 1.478642224815393
851 857 7.422599540732494E-2
851 858 -2.514697661050074E-1
851 859 -1.610413649458688
851 860 -6.26659525107847
851 861 2.73879872335072E-1
851 871 -3.1810974843109163E-1
851 872 -5.854483967043603E-1
851 873 -3.787020814791108E-1
851 877 3.558649563218345E-1
851 898 -9.908939241378742E-1
851 899 -2.004735977164426
851 900 1.1245250224015435
852 838 1.5508421821342155
852 839 -6.179429477749461
852 841 2.493157443366152
852 842 3.6500728902990027
852 843 -4.967046386383087E1
852 847 -1.78082674512999E-1
852 848 -3.351242540447499E-1
852 849 1.8493814841954728
852 850 -2.807563109083998
852 851 -5.355006008397776
852 852 6.220527227344965E1
852 856 -2.1352108055910663E-2
852 857 -2.514697661050081E-1
852 858 2.576592623989972
852 859 2.32549332630135E-2
852 860 2.738798723350726E-1
852 861 -5.280511346760894
852 871 -6.949223195772626E-1
852 872 -6.248184338654614E-2
852 873 -1.625877123810958
852 877 -4.9991462371332046E-1
852 898 1.685422458314326
852 899 5.292869271657897E-1
852 900 -3.8749645694829136
853 734 1.0294101415258197
853 736 -1.2202338599111575
853 737 -2.5524901911753934
853 767 2.5041292884696653
853 840 1.2398115954326798
853 853 3.385327737934431E1
853 854 -2.802982152289476E-1
853 855 -9.811643049550005E-1
853 856 -1.7000765077249582
853 857 -1.9984317268280982
853 858 8.109289218174488E-1
853 859 -1.2712582562834388E1
853 860 -7.942987090169129E-2
853 861 3.6377366947872886E-1
853 881 3.5114928127407157
853 882 2.0816626767180257
853 883 1.9769470207629247
853 887 -4.000054642816558
853 888 -1.719745311759335
853 932 -6.648627453616913E-1
853 939 -3.917151022932267
853 940 -2.050380440053242
853 941 2.739264564131505
853 948 -1.6187203942664043
853 949 -1.1452644806045231
853 950 -1.282725438407379
853 951 -1.6171479200341492
853 952 1.1705816024323737E-1
853 953 2.806636739423739E-1
853 954 -6.183800712576425
853 955 2.3956154367534843
853 959 -8.119365717369536
853 960 9.398907243802299E-1
854 734 -3.7623245965035446E-1
854 736 2.8468941089867354
854 737 -1.2631670232159755
854 767 -1.2202338599111584
854 840 -1.4080003394986467
854 853 -2.802982152289476E-1
854 854 3.77687741816696E1
854 855 2.7181272913012
854 856 -1.998431726828099
854 857 -2.2660125690573802
854 858 1.9891458626645215
854 859 -7.942987090169285E-2
854 860 -1.7518847751363886E1
854 861 -4.199568514192817
854 881 2.0816626767180253
854 882 1.8249453624751517
854 883 -1.4366170766498856
854 887 1.23981159543268
854 888 8.382032070069991E-1
854 932 1.1197771081249692
854 939 -2.0503804400532424
854 940 -2.0564316678712684
854 941 1.8301664282246457
854 948 -1.1452644806045225
854 949 -4.541614740173492E-1
854 950 -1.0359736399253814
854 951 1.1705816024323709E-1
854 952 -6.936716006455138
854 953 -1.838611836879207E-1
854 954 2.3956154367534843
854 955 -3.4174795469418395
854 959 9.398907243802308E-1
854 960 -8.38296429792597
855 734 -2.3601424512884197
855 736 -1.2631670232159755
855 737 1.5291234606919157
855 767 -2.552490191175394
855 840 4.021735162983537E-1
855 853 -9.811643049550005E-1
855 854 2.7181272913012
855 855 3.382575576225269E1
855 856 2.2082108623345037E-1
855 857 1.2759250806361255
855 858 -8.299287650247184E-1
855 859 4.841246326630727E-1
855 860 -5.093233191701673
855 861 -1.2818610730829931E1
855 881 1.9769470207629238
855 882 -1.4366170766498851
855 883 4.245082889513624E-1
855 887 -9.652988119737442E-1
855 888 -1.8237809201561939
855 932 -1.4521604831820571E1
855 939 2.7392645641315037
855 940 1.830166428224646
855 941 -2.0284298889031778
855 948 -4.141277031682139E-1
855 949 -5.102542376434264E-1
855 950 2.0453020217378662E-1
855 951 1.1632500974078372E-1
855 952 9.653892890491202E-1
855 953 -1.601420126046738
855 954 4.0461443102312256E-2
855 955 -8.287184423454413E-3
855 959 -6.648627453616921E-1
855 960 1.1197771081249692
856 729 -1.6166315165993767E-1
856 730 4.7643443917502415E-1
856 734 -1.2742266557779544E-1
856 736 -9.604612138366883E-2
856 737 1.9199466158041867E-1
856 754 8.557850795847828E-1
856 755 -1.352617016340917
856 766 -7.315330569940899
856 767 -5.334889233500645
856 791 -2.0997900315090225
856 838 1.6832721530057335
856 839 1.8666053147070278
856 841 -1.4335935416182282
856 842 1.818617255046875E-1
856 843 -8.536763554001068E-1
856 844 8.537792386196815E-1
856 845 -3.914970709664945E-1
856 846 1.002941112510438
856 847 -4.9205239003369625
856 848 -1.6137264259361284
856 849 4.743983385861485E-2
856 850 9.187986853147617E-1
856 851 1.478642224815393
856 852 -2.1352108055910663E-2
856 853 -1.7000765077249582
856 854 -1.998431726828099
856 855 2.2082108623345037E-1
856 856 3.0118564304840113E1
856 857 2.8485063646938746
856 858 -3.3534081272661784
856 859 -1.1809311243431003E1
856 860 -1.9057995423060572
856 861 2.6494128397440404
856 877 5.429782218985725E-2
856 954 -2.8750013399649715E-1
856 955 1.327498587401612
857 729 -1.7770787945661932
857 730 -9.694318108675597E-2
857 734 -5.091897912841785E-1
857 736 -6.234692223830161
857 737 3.9628536991130403
857 754 -1.3526170163409155
857 755 1.7513620230597748
857 766 -1.6166315165993672E-1
857 767 -9.604612138367045E-2
857 791 -2.805556243143004
857 838 1.4324071758812689
857 839 -1.9464312590573978
857 841 1.8186172550468746E-1
857 842 -2.1026656100864454
857 843 1.72539505367747
857 844 -3.914970709664944E-1
857 845 4.2444019704966446E-1
857 846 1.3145270239462308
857 847 -1.6137264259361292
857 848 -9.393902122468283
857 849 6.403676292862892E-1
857 850 1.4786422248153914
857 851 7.422599540732494E-2
857 852 -2.514697661050081E-1
857 853 -1.9984317268280982
857 854 -2.2660125690573802
857 855 1.2759250806361255
857 856 2.8485063646938746
857 857 2.8641284801087597E1
857 858 -3.8563653926471355
857 859 -1.9057995423060559
857 860 -7.297153980648289
857 861 5.468871466643248E-1
857 877 1.6832721530057335
857 954 1.3274985874016112
857 955 -3.252214891828874
858 729 -5.571746335303464E-2
858 730 -2.450360394452331
858 734 1.3613518896422755E-1
858 736 3.96285369911304
858 737 -1.2327386427326049E1
858 754 -2.099790031509024
858 755 -2.8055562431430054
858 766 -5.497030871211274E-1
858 767 1.919946615804189E-1
858 791 1.694807470103928
858 838 -1.9464312590573967
858 839 -1.885528954879667
858 841 -4.1764666468795714E-1
858 842 9.709485539153525E-1
858 843 -2.9843996239548973
858 844 4.842068902730776E-1
858 845 4.2422954118136136E-1
858 846 2.6943004529563264
858 847 4.7439833858616E-2
858 848 6.403676292862903E-1
858 849 -7.289963812709487
858 850 -2.135210805591014E-2
858 851 -2.514697661050074E-1
858 852 2.576592623989972
858 853 8.109289218174488E-1
858 854 1.9891458626645215
858 855 -8.299287650247184E-1
858 856 -3.3534081272661784
858 857 -3.8563653926471355
858 858 2.9110262385260405E1
858 859 3.517834192885553
858 860 4.5710708932888E-1
858 861 -8.444530142927716
858 877 1.8666053147070292
858 954 -4.7710979648194685E-1
858 955 4.7088774881613454E-1
859 736 1.3937109496229922
859 737 -2.522785767165708
859 767 7.431238154440507E-1
859 838 -1.3896847373505385
859 839 -8.765563792227988E-1
859 840 -1.437224917814595
859 841 8.787843719534165E-1
859 842 -1.9806860655790026E-1
859 843 9.297530071063114E-1
859 850 -3.474980609150766
859 851 -1.610413649458688
859 852 2.32549332630135E-2
859 853 -1.2712582562834388E1
859 854 -7.942987090169285E-2
859 855 4.841246326630727E-1
859 856 -1.1809311243431003E1
859 857 -1.9057995423060559
859 858 3.517834192885553
859 859 3.897105596401586E1
859 860 3.1803218820620094
859 861 -4.083274156896644
859 871 -7.367160995250237E-1
859 872 9.919569397386421E-1
859 873 -9.582357860459165E-1
859 877 -3.183914814275195
859 881 -5.806865799728921
859 882 -1.7008743153009875
859 883 3.2498029627394636
859 887 -3.4684941220282774
859 888 -1.4924166998059103
859 895 -2.4466148703610147
859 896 1.0614185791811583
859 897 1.2635935466282844
859 898 -1.182397424729259
859 899 1.6123202946560302
859 900 2.682601140021221E-1
859 932 1.9664539984915685E-1
859 959 4.228913394650534
859 960 8.176699442962712E-2
860 736 3.4574684102399242
860 737 -1.3242587664907185E-1
860 767 1.393710949622994
860 838 -5.345768943902776
860 839 -3.408137692049271
860 840 -1.6099944618336872
860 841 -1.9806860655790037E-1
860 842 5.836327838123994E-1
860 843 1.5515333948504455
860 850 -1.6104136494586863
860 851 -6.26659525107847
860 852 2.738798723350726E-1
860 853 -7.942987090169129E-2
860 854 -1.7518847751363886E1
860 855 -5.093233191701673
860 856 -1.9057995423060572
860 857 -7.297153980648289
860 858 4.5710708932888E-1
860 859 3.1803218820620094
860 860 3.943190858299196E1
860 861 4.278003865484376
860 871 9.919569397386416E-1
860 872 -8.047060734848449E-1
860 873 8.870812957881385E-1
860 877 -1.3896847373505392
860 881 -1.7008743153009873
860 882 -2.9520063117176125
860 883 6.902441032876996E-1
860 887 -1.4372249178145955
860 888 -9.716690340213692E-1
860 895 1.0614185791811597
860 896 -5.428955991746595E-1
860 897 2.637409882611945E-1
860 898 1.6123202946560304
860 899 -2.6866140665286338
860 900 -1.9670194451521752
860 932 3.170894630237753
860 959 8.176699442962566E-2
860 960 1.5515726626885904
861 736 -1.3242587664907246E-1
861 737 4.0904565126802686
861 767 -2.522785767165709
861 838 -3.408137692049271
861 839 -9.219238092134875
861 840 -4.6621099612105826E-1
861 841 4.5486587504178344E-1
861 842 6.578687173415894E-1
861 843 2.5677928695771786
861 850 2.32549332630113E-2
861 851 2.73879872335072E-1
861 852 -5.280511346760894
861 853 3.6377366947872886E-1
861 854 -4.199568514192817
861 855 -1.2818610730829931E1
861 856 2.6494128397440404
861 857 5.468871466643248E-1
861 858 -8.444530142927716
861 859 -4.083274156896644
861 860 4.278003865484376
861 861 3.7473561184173846E1
861 871 -3.629976907970462E-1
861 872 2.91843200552385E-1
861 873 3.764181700832079E-1
861 877 -8.765563792227976E-1
861 881 3.2498029627394662
861 882 6.902441032876995E-1
861 883 -5.80578911480501
861 887 -6.239953466643953E-1
861 888 -1.1280097691063191
861 895 1.263593546628283
861 896 2.6374098826119374E-1
861 897 -4.504606623514299E-1
861 898 2.6826011400212113E-1
861 899 -1.9670194451521752
861 900 -1.2519034809719491
861 932 -1.0917539662636633E-1
861 959 1.9664539984915813E-1
861 960 3.1708946302377536
862 862 5.206694647858061
862 863 -1.0113513625913235
862 864 -1.8345681721018718
862 865 5.601781728313329E-1
862 866 -3.6083984374991035E-1
862 867 1.1335100446642041E-1
862 874 7.125288724280758E-1
862 876 -1.3810719244282819
862 889 -2.788339967488749
862 890 2.6985413338045455E-1
862 891 1.5068119976208445
862 892 -2.0932533738037487
862 893 5.48684445447295E-1
862 894 2.4622521629368943E-1
862 901 -7.475952642005557E-2
862 902 -7.080848585130891E-1
862 906 5.220190978219854E-1
862 907 -4.5973224072611674E-2
862 908 -3.810144996644512E-1
862 909 -3.1772798729349094E-1
862 910 6.944678420109709E-1
862 925 -7.387555252186788E-1
862 926 9.921133652996439E-1
862 927 3.6281146988748847E-1
863 862 -1.0113513625913235
863 863 5.368479116169597
863 864 2.037928138197876
863 865 -3.9208984375013123E-1
863 866 5.601781728193671E-1
863 867 -1.6566685267937684E-1
863 874 -1.22595264202887E-2
863 876 -5.2102987293549285E-2
863 889 7.073541333806873E-1
863 890 -1.5695899674782365
863 891 -3.719082404882519E-1
863 892 4.8684445447296054E-2
863 893 -3.6870033737912857
863 894 -1.7813045456305272
863 901 9.00028872427727E-1
863 902 3.3358180815254346E-1
863 906 -2.8034822407233234E-1
863 907 -1.8110590217586228E-1
863 908 1.7702121463058035E-1
863 909 -5.841969244269672E-1
863 910 6.2027365810385926E-2
863 925 9.921133652996441E-1
863 926 -8.067899935443414E-1
863 927 -2.916788879932303E-1
864 862 -1.8345681721018718
864 863 2.037928138197876
864 864 7.623617721909036
864 865 -1.6566685268145262E-1
864 866 1.1335100446405078E-1
864 867 -2.804627710615325E-1
864 874 -2.7234033018971787E-1
864 876 6.944678420109704E-1
864 889 1.5068119976208443
864 890 1.4892509284313804E-1
864 891 -4.271131018889151
864 892 -3.4901287895517763E-1
864 893 -1.7813045456305268
864 894 -5.194400939040131
864 901 2.4849300314276923E-1
864 902 2.2114900499622276
864 906 -5.377411708399502E-1
864 907 -2.5872331369103596E-1
864 908 1.1603647528774064
864 909 3.782476039092795E-1
864 910 -1.6244663682409999
864 925 9.580495651363586E-1
864 926 -8.869169832355516E-1
864 927 3.749885724831442E-1
865 807 -9.770107811495686E-2
865 808 4.2124542124044095E-2
865 809 -1.3736263736429902E-1
865 824 4.068040328398667E-1
865 825 -6.470287757543031E-1
865 826 1.0439560439535582
865 827 2.690234924296016E-1
865 828 -1.2454212454262242E-1
865 829 -2.1062271062022042E-1
865 830 -1.467260501537796
865 831 -3.0631704409807947E-1
865 832 1.0416666666453703E-1
865 836 8.418810096160172E-1
865 837 -1.500482200052107
865 838 2.500000000015311E-1
865 839 1.8749999999925606
865 862 5.601781728313329E-1
865 863 -3.9208984375013123E-1
865 864 -1.6566685268145262E-1
865 865 1.675953789756545E1
865 866 -2.014766403701838
865 867 1.219067651076184
865 868 -8.86689793494354
865 869 2.92633171358437E-1
865 870 -5.219780219757201E-1
865 875 -2.4761890264939286
865 877 4.28571428501978E-1
865 878 -7.14285714394609E-1
865 879 4.583333333355629E-1
865 880 1.041666666685248
865 884 -1.210475791767893
865 885 1.0275065104154322
865 886 -8.759998139793178E-1
865 889 -3.7619708995473844
865 890 3.1249999999665484E-1
865 891 -1.5625000000278755
865 892 1.7066592263187677E-1
865 893 2.597656249992948E-1
865 894 -3.092447916710972E-1
866 807 1.2545787545737774E-1
866 808 -3.711958158620641E-1
866 809 -7.907509157525852E-1
866 824 -6.470287757543032E-1
866 825 6.553992993484066E-1
866 826 5.99587912098076E-1
866 827 4.212454212404464E-2
866 828 -2.245059876442524E-1
866 829 1.1861263736288818
866 830 -3.063170440980802E-1
866 831 -2.33379127116626
866 832 4.1575618734288927E-1
866 836 -8.866602706970186E-1
866 837 3.2224939978947265E-1
866 838 1.0714285713288316
866 839 -1.5625000000205116
866 862 -3.6083984374991035E-1
866 863 5.601781728193671E-1
866 864 1.1335100446405078E-1
866 865 -2.014766403701838
866 866 1.7816174389155126E1
866 867 -2.824079018867139
866 868 2.926331713579263E-1
866 869 -9.083014175669813
866 870 1.26270604396601
866 875 1.0762560096160758
866 877 2.500000000015309E-1
866 878 2.2916666666778113E-1
866 879 -1.7857142858336834
866 880 -1.7857142857453039
866 884 6.785481770823308E-1
866 885 -2.1859222203156103
866 886 1.3933454240955792
866 889 8.124999999966547E-1
866 890 -2.0905423280966127
866 891 9.375000000010777E-1
866 892 -1.7773437499959038E-1
866 893 -1.141834077366416
866 894 7.324218749995023E-1
867 807 -6.868131868215073E-2
867 808 -3.953754578762912E-1
867 809 -1.3397054113627394E-1
867 824 1.0439560439535582
867 825 5.995879120980675E-1
867 826 1.8608891741225436E-1
867 827 -6.272893772868893E-1
867 828 1.186126373628881
867 829 1.2719287081507451E-2
867 830 5.20833333331204E-1
867 831 1.0109942825852112
867 832 -1.050872702883796
867 836 2.0589179905660718E-1
867 837 3.8909423085263733E-1
867 838 -1.5625000000205045
867 839 4.28571428428092E-1
867 862 1.1335100446642041E-1
867 863 -1.6566685267937684E-1
867 864 -2.804627710615325E-1
867 865 1.219067651076184
867 866 -2.824079018867139
867 867 2.8106207276187543E1
867 868 -1.4594780219725296
867 869 1.2627060439660105
867 870 -2.079211823642053E1
867 875 -1.1524968520675873
867 877 1.8749999999925606
867 878 5.208333333426233E-1
867 879 -1.7857142857453039
867 880 -7.142857145474494E-1
867 884 -6.341843377970484E-1
867 885 1.3933454240955796
867 886 -3.6983484772201825E-1
867 889 -1.5625000000278746
867 890 3.4226190475875645E-1
867 891 -4.382605820222196
867 892 2.1158854167152663E-1
867 893 7.324218749995021E-1
867 894 -1.3985305059682374
868 820 -1.4583333333489812E-1
868 821 -1.0416666666624039E-1
868 822 6.249999999985781E-1
868 824 -3.2288783400257555
868 825 -1.3699441101085222E-1
868 826 2.2417065371160116E-1
868 827 -1.8967070774689296
868 828 3.7784475603888854E-2
868 829 2.3989709891929445E-2
868 830 2.8420371879814157
868 831 -4.781920758275582E-1
868 832 -8.441834996337207E-1
868 838 7.597656250044851E-1
868 839 -8.365885416664673E-1
868 865 -8.86689793494354
868 866 2.926331713579263E-1
868 867 -1.4594780219725296
868 868 1.7599979067906343E1
868 869 -2.0368457434672775
868 870 3.9534490801061545E-1
868 871 5.601781728312106E-1
868 872 -3.9208984375000644E-1
868 873 1.656668526798637E-1
868 877 -1.7287636408909628
868 878 -3.333333333309869E-1
868 879 4.583333333325378E-1
868 880 -1.0416666666600363
868 881 -1.2104757918987723
868 882 1.0275065104225787
868 883 8.759998139750622E-1
868 895 1.70665922637781E-1
868 896 2.597656249993249E-1
868 897 3.0924479167505164E-1
868 898 -3.761970899462913
868 899 3.1250000000119327E-1
868 900 1.5624999999900544
869 820 -2.083333333290715E-2
869 821 -4.958333333369458E-1
869 822 1.0416666666737762
869 824 -1.369944110108543E-1
869 825 -3.7125139583617894
869 826 9.450807973560411E-1
869 827 2.044511422705545E-1
869 828 -2.829334753592546
869 829 -2.529613699874048E-1
869 830 -4.781920758275578E-1
869 831 3.6673244096269544
869 832 -2.0290825018314034
869 838 2.0566716225698597E-2
869 839 9.602864583386395E-1
869 865 2.92633171358437E-1
869 866 -9.083014175669813
869 867 1.2627060439660105
869 868 -2.0368457434672775
869 869 1.8124258881471665E1
869 870 -5.367920766625811E-1
869 871 -3.608398437499952E-1
869 872 5.601781728271462E-1
869 873 -1.1335100446458687E-1
869 877 9.941406250043776E-1
869 878 2.2916666666626867E-1
869 879 -8.333333333289986E-1
869 880 1.7857142857070782
869 881 6.785481770888342E-1
869 882 -2.18592222047237
869 883 -1.3933454240936554
869 895 -1.777343750010732E-1
869 896 -1.1418340773614
869 897 -7.324218750029672E-1
869 898 8.125000000011933E-1
869 899 -2.090542328027604
869 900 -9.374999999989468E-1
870 820 3.1249999999928907E-1
870 821 5.208333333368881E-1
870 822 -1.8333333333481255E-1
870 824 -1.9249601295506688E-1
870 825 3.4984270212029633E-1
870 826 -4.260206850015125
870 827 4.406563765585982E-1
870 828 -2.529613699874059E-1
870 829 -3.2861023205424624
870 830 -8.44183499633721E-1
870 831 -2.0290825018314043
870 832 4.859276539592837
870 838 1.2021019345323318
870 839 7.824714781451423E-1
870 865 -5.219780219757201E-1
870 866 1.26270604396601
870 867 -2.079211823642053E1
870 868 3.9534490801061545E-1
870 869 -5.367920766625811E-1
870 870 2.9644780000956136E1
870 871 -1.1335100446485788E-1
870 872 1.6566685267860198E-1
870 873 -2.804627710520483E-1
870 877 -9.407552083338443E-1
870 878 -5.208333333300174E-1
870 879 1.7857142857070774
870 880 -3.3333333332945825E-1
870 881 6.341843377896416E-1
870 882 -1.3933454240936554
870 883 -3.698348480189179E-1
870 895 -2.1158854165496777E-1
870 896 -7.324218750029665E-1
870 897 -1.3985305059203248
870 898 1.5624999999900546
870 899 -3.4226190476319296E-1
870 900 -4.38260582006044
871 840 -4.631007214442415E-2
871 841 7.129133662382339E-1
871 842 -7.484935257429072E-2
871 843 7.085482474198102E-1
871 850 -1.3823233967076693
871 851 -3.1810974843109163E-1
871 852 -6.949223195772626E-1
871 859 -7.367160995250237E-1
871 860 9.919569397386416E-1
871 861 -3.629976907970462E-1
871 868 5.601781728312106E-1
871 869 -3.608398437499952E-1
871 870 -1.1335100446485788E-1
871 871 5.208388482108136
871 872 -1.0104703394060979
871 873 1.8346474570850082
871 887 5.215938154605892E-1
871 888 3.8089865244463417E-1
871 895 -2.0947781529519456
871 896 5.486335439578051E-1
871 897 -2.453162611776568E-1
871 898 -2.7892561874535335
871 899 2.6998887260945326E-1
871 900 -1.5075070809326296
872 840 -1.815311845370809E-1
872 841 -1.2349352573850392E-2
872 842 9.004133662402559E-1
872 843 -3.3311841925989133E-1
872 850 -5.248474843098175E-2
872 851 -5.854483967043603E-1
872 852 -6.248184338654614E-2
872 859 9.919569397386421E-1
872 860 -8.047060734848449E-1
872 861 2.91843200552385E-1
872 868 -3.9208984375000644E-1
872 869 5.601781728271462E-1
872 870 1.6566685267860198E-1
872 871 -1.0104703394060979
872 872 5.370128456058109
872 873 -2.0381993866641457
872 887 -2.806850721445238E-1
872 888 -1.7713706184338593E-1
872 895 4.863354395780606E-2
872 896 -3.6885281529467475
872 897 1.7822135007420525
872 898 7.074888726090127E-1
872 899 -1.570506187452478
872 900 3.712131571809302E-1
873 840 2.588926288652595E-1
873 841 2.7251855670765984E-1
873 842 -2.4831477663153356E-1
873 843 2.2128555021848215
873 850 -6.949223195772622E-1
873 851 -3.787020814791108E-1
873 852 -1.625877123810958
873 859 -9.582357860459165E-1
873 860 8.870812957881385E-1
873 861 3.764181700832079E-1
873 868 1.656668526798637E-1
873 869 -1.1335100446458687E-1
873 870 -2.804627710520483E-1
873 871 1.8346474570850082
873 872 -2.0381993866641457
873 873 7.628260584869812
873 887 5.379104860120629E-1
873 888 1.1608173632917997
873 895 3.4992183407121275E-1
873 896 1.7822135007420514
873 897 -5.197983830209173
873 898 -1.5075070809326294
873 899 -1.496201761560721E-1
873 900 -4.274027895357464
874 744 4.2760596135205997E-1
874 749 -1.7529575592625701
874 765 -1.4334570931875565
874 768 -6.180062447638371E-2
874 769 -5.933600626285301E-1
874 772 1.5590031223774745E-1
874 773 1.2460561315666567
874 862 7.125288724280758E-1
874 863 -1.22595264202887E-2
874 864 -2.7234033018971787E-1
874 874 2.1560560433105046E1
874 876 -2.0392836465399633E1
874 901 2.4620983867627264E-1
874 902 2.1490479877874447
874 909 -3.11800624475283E-1
874 910 -2.4921122631316215
874 923 1.818165423521001E-1
874 924 4.1725941516061205E-1
874 925 8.785558509645763E-1
874 926 -1.980659178941645E-1
874 927 -4.545508785648422E-1
875 736 1.891408451824127
875 737 8.207300358137322E-1
875 747 -6.225006542719768
875 748 -6.382654831454079E-1
875 749 -7.965812885543071E-1
875 754 3.856186786154173E-1
875 755 2.500000000034704E-1
875 765 4.811391056105278E-2
875 767 -3.7761633522122913
875 771 -2.27276574294715
875 772 -1.2027170309480744
875 773 -1.453732153512671
875 778 -4.0122753768672104E-1
875 779 3.070981482409151E-1
875 789 -4.484834179148379E-1
875 790 1.0361107454428167
875 791 2.6424356434112513
875 803 2.5729294106615903
875 823 -4.278019993424572
875 824 -3.0588618747193603
875 825 4.4848341791483853E-1
875 826 -1.348610745444951
875 830 -2.8548137789859176
875 831 8.548757454197348E-1
875 832 -7.681716012344344E-1
875 836 -1.2120752618668946
875 837 3.2346254967379737
875 838 -2.3260923190384114E-1
875 839 -2.1654849140636716
875 865 -2.4761890264939286
875 866 1.0762560096160758
875 867 -1.1524968520675873
875 875 5.956511899261656E1
875 876 -1.7880413174776622
875 877 -2.8048468250935205E1
875 878 -5.725024220009698E-1
875 879 -5.982204237282254E-1
875 880 -3.4954611362716017
875 884 -2.641764955637481
875 885 -1.735283198176158
875 886 2.2734947780980614
875 889 -5.789133254795376
875 890 1.5135161124101457
875 891 2.379332784249436
875 909 3.5487277542297435E-1
875 910 4.9949558810301664E-1
875 923 1.6840284753930728
875 924 -1.865648372702723
875 925 -3.4163586746265446
875 926 -1.3896246911024444
875 927 7.930077024680282E-1
875 932 5.360405956795613E-1
875 959 3.1501237401287536
875 960 -2.1493471153183485E-1
876 749 -9.787925676002773E-1
876 765 9.143191963702597E-1
876 772 -5.281028101714352E-1
876 773 1.7800801880825934E-1
876 836 2.1424777542248172E-1
876 837 4.994955881030184E-1
876 862 -1.3810719244282819
876 863 -5.2102987293549285E-2
876 864 6.944678420109704E-1
876 874 -2.0392836465399633E1
876 875 -1.7880413174776622
876 876 3.043267435361116E1
876 889 -3.334296159644093
876 890 -4.900509402688471E-1
876 891 -1.6843201960350047
876 901 -4.368006244747323E-1
876 902 -2.492112263131622
876 909 1.4249399131058205
876 910 2.806380090718607
876 923 1.4784247560235348
876 924 2.1472860628832868E-2
876 925 -3.4719551154314687
876 926 -1.6105550823432733
876 927 -2.3391941103062343E-2
877 736 1.9063736572902292
877 737 -8.650353536366682E-1
877 754 -5.680184685428815
877 755 -7.676952650963955E-1
877 767 -3.606653060480515
877 789 -4.375000000047071E-1
877 790 -1.0416666667082511E-1
877 791 -8.968673499881765E-1
877 823 -3.0059523804807414E-1
877 824 -5.113095238146642
877 825 8.750000000094047E-1
877 826 2.083333333416482E-1
877 836 -2.3260923190384103E-1
877 837 -2.165484914063673
877 838 -9.97135725270856E-1
877 839 2.592426470682551
877 847 -8.022450717382243E-1
877 848 -1.2034217689830764
877 849 1.4543418419452
877 850 -1.7914768917976436
877 851 3.558649563218345E-1
877 852 -4.9991462371332046E-1
877 856 5.429782218985725E-2
877 857 1.6832721530057335
877 858 1.8666053147070292
877 859 -3.183914814275195
877 860 -1.3896847373505392
877 861 -8.765563792227976E-1
877 865 4.28571428501978E-1
877 866 2.500000000015309E-1
877 867 1.8749999999925606
877 868 -1.7287636408909628
877 869 9.941406250043776E-1
877 870 -9.407552083338443E-1
877 875 -2.8048468250935205E1
877 877 5.6123290443216696E1
877 878 -1.2110833668289207
877 879 -5.256335303830848E-1
877 880 3.4954611362687507
877 881 -2.564032827093297
877 882 -1.7939602041196456
877 883 -2.2907499208515802
877 898 -5.789961258680577
877 899 1.5123958254109384
877 900 -2.380632766784146
877 932 -4.7200491367270814E-1
877 959 3.214314650435541
877 960 -2.2940675393190274E-1
878 836 -5.982204237282254E-1
878 837 -3.495461136271605
878 838 -5.25633530383085E-1
878 839 3.495461136268753
878 865 -7.14285714394609E-1
878 866 2.2916666666778113E-1
878 867 5.208333333426233E-1
878 868 -3.333333333309869E-1
878 869 2.2916666666626867E-1
878 870 -5.208333333300174E-1
878 875 -5.725024220009698E-1
878 877 -1.2110833668289207
878 878 4.2944611464260525E1
878 879 3.3239170717271574E-2
878 880 6.674045696039099E-1
878 881 -1.836151125526328E1
878 882 8.731554972668062E-2
878 883 2.578042964078217
878 884 -1.9551498318394895E1
878 885 -6.172552494024358E-1
878 886 -3.24544753372765
878 914 8.634562750607623E-1
878 915 3.117555395812053E-1
878 916 8.912944696120985E-1
878 932 3.972970064306757E-11
878 933 -4.0328501845335074E-1
878 934 -2.2754710921482763E-1
878 935 -8.912944696160605E-1
878 959 -2.6605683106542894
878 960 1.0780127193693672
879 836 2.875700675264298E-1
879 837 -1.8616497049022573
879 838 -6.623714252069415E-1
879 839 1.8616497049302816
879 865 4.583333333355629E-1
879 866 -1.7857142858336834
879 867 -1.7857142857453039
879 868 4.583333333325378E-1
879 869 -8.333333333289986E-1
879 870 1.7857142857070774
879 875 -5.982204237282254E-1
879 877 -5.256335303830848E-1
879 878 3.3239170717271574E-2
879 879 4.301832038864102E1
879 880 2.1610821823957496
879 881 8.73155497256374E-2
879 882 -1.8185075806053405E1
879 883 -1.3030993808644316
879 884 -4.922552494002058E-1
879 885 -1.917488306460486E1
879 886 -8.579828014431368E-1
879 914 8.258887291446707E-2
879 915 2.411301266854117E-1
879 916 1.8616497049162253
879 932 -7.178424075213381E-12
879 933 -5.817137758833266E-1
879 934 -1.5165949926359272
879 935 -1.8616497049870255
879 959 1.0780127193693672
879 960 -1.3890476751890672
880 836 -1.8616497049022573
880 837 -8.140924416335703E-2
880 838 1.8616497049302816
880 839 -5.3527279789959E-1
880 865 1.041666666685248
880 866 -1.7857142857453039
880 867 -7.142857145474494E-1
880 868 -1.0416666666600363
880 869 1.7857142857070782
880 870 -3.3333333332945825E-1
880 875 -3.4954611362716017
880 877 3.4954611362687507
880 878 6.674045696039099E-1
880 879 2.1610821823957496
880 880 9.544145933871997E1
880 881 1.536376297418072
880 882 -1.303099380864432
880 883 -4.58821928504563E1
880 884 -2.2037808670423997
880 885 -8.579828014431358E-1
880 886 -4.650499122866795E1
880 914 1.4121278029296187
880 915 1.8616497049162248
880 916 3.1559611519548963E-1
880 932 -1.157033138617826
880 933 -1.4121278029712925
880 934 -1.861649704987026
880 935 -5.485371462335664E-1
880 959 3.97295681698299E-11
880 960 -7.178202640652737E-12
881 838 -1.7939602041196459
881 839 -2.29074992085158
881 840 -2.4263720162231514E-1
881 853 3.5114928127407157
881 854 2.0816626767180253
881 855 1.9769470207629238
881 859 -5.806865799728921
881 860 -1.7008743153009873
881 861 3.2498029627394662
881 868 -1.2104757918987723
881 869 6.785481770888342E-1
881 870 6.341843377896416E-1
881 877 -2.564032827093297
881 878 -1.836151125526328E1
881 879 8.73155497256374E-2
881 880 1.536376297418072
881 881 3.81844214406355E1
881 882 5.674295900895631E-1
881 883 -1.2180739140980285E-1
881 887 -3.2931385420321986
881 888 -1.703641680360945
881 895 -5.728182116040275
881 896 1.1686927990873457
881 897 -2.2094763427283297
881 898 1.941626223796047
881 899 -4.612022488588985E-1
881 900 8.332702632668251E-1
881 932 -2.0711146729460426
881 933 -1.2475653045247574
881 934 -6.313217997971138E-1
881 935 8.912944696051308E-1
881 939 -2.736697437403331
881 940 -1.1813475326110314
881 941 -7.250853432853595E-1
881 959 -2.6890714031874454
881 960 1.427694509600587
882 838 -3.904429086673419E-1
882 839 -1.4654953840388736
882 840 -1.8692778141244457
882 853 2.0816626767180257
882 854 1.8249453624751517
882 855 -1.4366170766498851
882 859 -1.7008743153009875
882 860 -2.9520063117176125
882 861 6.902441032876995E-1
882 868 1.0275065104225787
882 869 -2.18592222047237
882 870 -1.3933454240936554
882 877 -1.7939602041196456
882 878 8.731554972668062E-2
882 879 -1.8185075806053405E1
882 880 -1.303099380864432
882 881 5.674295900895631E-1
882 882 3.8171447349038054E1
882 883 8.51043755275324E-1
882 887 -3.8326220162300867E-1
882 888 -7.136605969525864E-1
882 895 1.6686927990873464
882 896 -5.572448341598544
882 897 2.0612409434684897
882 898 -4.6120224885889904E-1
882 899 -1.2053281914231313
882 900 1.8675413411328563
882 932 1.2511870869648343
882 933 -8.396551331301643E-1
882 934 -1.2287928061383826
882 935 1.8616497049223324
882 939 -1.6813475326120741
882 940 -5.713127333018143
882 941 -2.2706890724521043
882 959 1.4276945096005866
882 960 -6.939709782998468E-1
883 838 -1.4654953840388731
883 839 7.983021792855773E-1
883 840 -7.136605969525862E-1
883 853 1.9769470207629247
883 854 -1.4366170766498856
883 855 4.245082889513624E-1
883 859 3.2498029627394636
883 860 6.902441032876996E-1
883 861 -5.80578911480501
883 868 8.759998139750622E-1
883 869 -1.3933454240936554
883 870 -3.698348480189179E-1
883 877 -2.2907499208515802
883 878 2.578042964078217
883 879 -1.3030993808644316
883 880 -4.58821928504563E1
883 881 -1.2180739140980285E-1
883 882 8.51043755275324E-1
883 883 6.649765701465527E1
883 887 -2.4662904898762825
883 888 -6.2835909007945485
883 895 -2.8047144379771995
883 896 2.061240943468488
883 897 -7.31243140151026
883 898 8.332702632668262E-1
883 899 1.8675413411328567
883 900 6.70949499533784E-1
883 932 4.6805461198535836E-1
883 933 1.4121278029350477
883 934 1.8616497049223333
883 935 -7.075308887571927E-1
883 939 -1.171513914696634
883 940 -2.2706890724521047
883 941 -2.498101590069157
883 959 -2.0711146729460426
883 960 1.2511870869648338
884 836 -1.735283198176158
884 837 2.273494778098062
884 865 -1.210475791767893
884 866 6.785481770823308E-1
884 867 -6.341843377970484E-1
884 875 -2.641764955637481
884 878 -1.9551498318394895E1
884 879 -4.922552494002058E-1
884 880 -2.2037808670423997
884 884 3.9202461279917046E1
884 885 1.3423161931632859
884 886 7.412603952213437E-1
884 889 1.9419120082680945
884 890 -4.610676910407039E-1
884 891 -8.324503449064988E-1
884 892 -5.727731886005376
884 893 1.1697172312262258
884 894 2.2093754946438855
884 906 -3.322316082719768
884 907 -2.4125144897511638E-1
884 908 1.71839769594173
884 914 -4.414824842906887
884 915 -1.986133656401904
884 916 -1.5171079284610495E-1
884 920 3.5248745093785367
884 921 1.953784179678252
884 922 -1.9135251518629373
884 925 -5.4128677963221
884 926 -1.6944635876125909
884 927 -3.2339295592341495
884 932 2.0270526897841172
884 959 -2.3877681238092587
884 960 1.4660890504565856
885 836 -3.439321383684101E-1
885 837 1.4853973023691343
885 865 1.0275065104154322
885 866 -2.1859222203156103
885 867 1.3933454240955796
885 875 -1.735283198176158
885 878 -6.172552494024358E-1
885 879 -1.917488306460486E1
885 880 -8.579828014431358E-1
885 884 1.3423161931632859
885 885 3.8921651505014324E1
885 886 1.3383044694944255
885 889 -4.610676910407042E-1
885 890 -1.2050409521343481
885 891 -1.8666183726686065
885 892 1.6697172312262267
885 893 -5.570560600741799
885 894 -2.0605867963618514
885 906 -3.818764489731651E-1
885 907 -1.8892338873983583
885 908 7.175127577470597E-1
885 914 -2.5694669897347264
885 915 -6.937030708945851
885 916 3.930692174184999E-1
885 920 1.9537841796782554
885 921 1.7818074587582675
885 922 1.430741712600958
885 925 -1.6944635876125935
885 926 -2.7705757094777503
885 927 -7.361925043079958E-1
885 932 -1.236990408944067
885 959 1.4660890504565858
885 960 -6.262796817856049E-1
886 836 1.4853973023691345
886 837 8.058237513258277E-1
886 865 -8.759998139793178E-1
886 866 1.3933454240955792
886 867 -3.6983484772201825E-1
886 875 2.2734947780980614
886 878 -3.24544753372765
886 879 -8.579828014431368E-1
886 880 -4.650499122866795E1
886 884 7.412603952213437E-1
886 885 1.3383044694944255
886 886 6.705543324312784E1
886 889 -8.324503449064989E-1
886 890 -1.866618372668607
886 891 6.714006981065347E-1
886 892 2.8046135898927567
886 893 -2.060586796361851
886 894 -7.3080306015340115
886 906 2.4810465054791067
886 907 7.175127577470595E-1
886 908 -6.324607421864591
886 914 -2.261155547648315E-1
886 915 3.9306921741850115E-1
886 916 -3.335174550045443
886 920 -1.91352515186294
886 921 1.4307417126009585
886 922 3.4605559975722483E-1
886 925 -3.2339295592341473
886 926 -7.361925043079967E-1
886 927 -5.675675473464004
886 932 6.396008309805947E-1
886 959 2.0270526897841186
886 960 -1.2369904089440669
887 840 3.770172688304163E-1
887 853 -4.000054642816558
887 854 1.23981159543268
887 855 -9.652988119737442E-1
887 859 -3.4684941220282774
887 860 -1.4372249178145955
887 861 -6.239953466643953E-1
887 871 5.215938154605892E-1
887 872 -2.806850721445238E-1
887 873 5.379104860120629E-1
887 881 -3.2931385420321986
887 882 -3.8326220162300867E-1
887 883 -2.4662904898762825
887 887 1.0600745035505742E1
887 888 4.092702683808855
887 895 -9.642679476370842E-1
887 896 -5.239454679985656E-1
887 897 -6.237446047621892E-1
887 939 3.913368783272161E-1
887 940 7.746051527248545E-1
887 941 -5.026619870359385E-1
887 948 2.1227952522056945E-1
887 949 2.3368364259274263E-1
887 950 5.513780704916323E-1
888 840 7.472406922247297E-1
888 853 -1.719745311759335
888 854 8.382032070069991E-1
888 855 -1.8237809201561939
888 859 -1.4924166998059103
888 860 -9.716690340213692E-1
888 861 -1.1280097691063191
888 871 3.8089865244463417E-1
888 872 -1.7713706184338593E-1
888 873 1.1608173632917997
888 881 -1.703641680360945
888 882 -7.136605969525864E-1
888 883 -6.2835909007945485
888 887 4.092702683808855
888 888 1.1546632205216412E1
888 895 -1.029112714321691E-1
888 896 -1.1445779380799554
888 897 -2.677915263078311
888 939 1.6698087013178242E-1
888 940 1.5479652410757776
888 941 -1.1287607962721071
888 948 3.7813275697308757E-1
888 949 -1.263645094102091E-1
888 950 3.346080808992678E-1
889 836 1.076016112409913
889 837 2.379332784249436
889 862 -2.788339967488749
889 863 7.073541333806873E-1
889 864 1.5068119976208443
889 865 -3.7619708995473844
889 866 8.124999999966547E-1
889 867 -1.5625000000278746
889 875 -5.789133254795376
889 876 -3.334296159644093
889 884 1.9419120082680945
889 885 -4.610676910407042E-1
889 886 -8.324503449064989E-1
889 889 2.0424533568778774E1
889 890 -1.0994812845747015
889 891 -1.5118453724558072
889 892 -5.507872621542281
889 893 -1.6580823099404345
889 894 1.9739075118750518
889 909 -9.900509402688475E-1
889 910 -1.684320196035005
889 925 -1.1848326740289823
889 926 1.612811980037431
889 927 -2.6893638032014766E-1
890 836 -3.972538993780174
890 837 -1.421936271110557
890 862 2.6985413338045455E-1
890 863 -1.5695899674782365
890 864 1.4892509284313804E-1
890 865 3.1249999999665484E-1
890 866 -2.0905423280966127
890 867 3.4226190475875645E-1
890 875 1.5135161124101457
890 876 -4.900509402688471E-1
890 884 -4.610676910407039E-1
890 885 -1.2050409521343481
890 886 -1.866618372668607
890 889 -1.0994812845747015
890 890 1.6412335155382387E1
890 891 9.464619689969898E-1
890 892 -1.658082309940435
890 893 -2.8828726215150895
890 894 4.1140751184379376E-1
890 909 -2.0017148397653046
890 910 -5.281846648885042E-1
890 925 1.6128119800374299
890 926 -2.6900354526126176
890 927 1.9676828302249905
891 836 -9.011029377791675E-1
891 837 -6.1315414002031305
891 862 1.5068119976208445
891 863 -3.719082404882519E-1
891 864 -4.271131018889151
891 865 -1.5625000000278755
891 866 9.375000000010777E-1
891 867 -4.382605820222196
891 875 2.379332784249436
891 876 -1.6843201960350047
891 884 -8.324503449064988E-1
891 885 -1.8666183726686065
891 886 6.714006981065347E-1
891 889 -1.5118453724558072
891 890 9.464619689969898E-1
891 891 2.2267434954571034E1
891 892 1.9739075118750524
891 893 4.1140751184379354E-1
891 894 -3.0270611590179857
891 909 -1.1234227601308255
891 910 -3.871746333947742
891 925 -2.6893638032014855E-1
891 926 1.9676828302249911
891 927 -1.2547499203973613
892 862 -2.0932533738037487
892 863 4.8684445447296054E-2
892 864 -3.4901287895517763E-1
892 865 1.7066592263187677E-1
892 866 -1.7773437499959038E-1
892 867 2.1158854167152663E-1
892 884 -5.727731886005376
892 885 1.6697172312262267
892 886 2.8046135898927567
892 889 -5.507872621542281
892 890 -1.658082309940435
892 891 1.9739075118750524
892 892 1.6569934523334375E1
892 893 -8.58478880350829E-1
892 894 -3.4793183256291167
892 906 -9.622066988640379E-1
892 907 -8.581668493585573E-2
892 908 1.0216272016322536E-1
892 925 -2.449535865750802
892 926 1.0617105735531855
892 927 -1.2639411590182705
893 862 5.48684445447295E-1
893 863 -3.6870033737912857
893 864 -1.7813045456305268
893 865 2.597656249992948E-1
893 866 -1.141834077366416
893 867 7.324218749995021E-1
893 884 1.1697172312262258
893 885 -5.570560600741799
893 886 -2.060586796361851
893 889 -1.6580823099404345
893 890 -2.8828726215150895
893 891 4.1140751184379354E-1
893 892 -8.58478880350829E-1
893 893 1.6101548124142084E1
893 894 1.817666839779347
893 906 -5.233166849347408E-1
893 907 -2.2747066988572113
893 908 1.143829386844144
893 925 1.0617105735531849
893 926 -5.445707518702771E-1
893 927 -2.634342714744086E-1
894 862 2.4622521629368943E-1
894 863 -1.7813045456305272
894 864 -5.194400939040131
894 865 -3.092447916710972E-1
894 866 7.324218749995023E-1
894 867 -1.3985305059682374
894 884 2.2093754946438855
894 885 -2.0605867963618514
894 886 -7.3080306015340115
894 889 1.9739075118750518
894 890 4.1140751184379376E-1
894 891 -3.0270611590179857
894 892 -3.4793183256291167
894 893 1.817666839779347
894 894 2.0055858182471116E1
894 906 6.22996053505851E-1
894 907 1.143829386844145
894 908 -2.6755916649595988
894 925 -1.263941159018271
894 926 -2.6343427147440873E-1
894 927 -4.522433119511489E-1
895 840 -8.644546799816866E-2
895 859 -2.4466148703610147
895 860 1.0614185791811597
895 861 1.263593546628283
895 868 1.70665922637781E-1
895 869 -1.777343750010732E-1
895 870 -2.1158854165496777E-1
895 871 -2.0947781529519456
895 872 4.863354395780606E-2
895 873 3.4992183407121275E-1
895 881 -5.728182116040275
895 882 1.6686927990873464
895 883 -2.8047144379771995
895 887 -9.642679476370842E-1
895 888 -1.029112714321691E-1
895 895 1.6573111034597577E1
895 896 -8.558539862117547E-1
895 897 3.480354933453378
895 898 -5.509933870245031
895 899 -1.6587110930153164
895 900 -1.9746560630885357
896 840 -2.2767679476447507
896 859 1.0614185791811583
896 860 -5.428955991746595E-1
896 861 2.6374098826119374E-1
896 868 2.597656249993249E-1
896 869 -1.1418340773614
896 870 -7.324218750029665E-1
896 871 5.486335439578051E-1
896 872 -3.6885281529467475
896 873 1.7822135007420514
896 881 1.1686927990873457
896 882 -5.572448341598544
896 883 2.061240943468488
896 887 -5.239454679985656E-1
896 888 -1.1445779380799554
896 895 -8.558539862117547E-1
896 896 1.6107407988979972E1
896 897 -1.8180395562745268
896 898 -1.6587110930153153
896 899 -2.884933870253868
896 900 -4.1215606311428477E-1
897 840 -1.1445779380799568
897 859 1.2635935466282844
897 860 2.637409882611945E-1
897 861 -4.504606623514299E-1
897 868 3.0924479167505164E-1
897 869 -7.324218750029672E-1
897 870 -1.3985305059203248
897 871 -2.453162611776568E-1
897 872 1.7822135007420525
897 873 -5.197983830209173
897 881 -2.2094763427283297
897 882 2.0612409434684897
897 883 -7.31243140151026
897 887 -6.237446047621892E-1
897 888 -2.677915263078311
897 895 3.480354933453378
897 896 -1.8180395562745268
897 897 2.0066706420181923E1
897 898 -1.9746560630885348
897 899 -4.12156063114286E-1
897 900 -3.0293847571124175
898 838 1.0748958254113792
898 839 -2.3806327667841463
898 850 -3.3371626740564495
898 851 -9.908939241378742E-1
898 852 1.685422458314326
898 859 -1.182397424729259
898 860 1.6123202946560304
898 861 2.6826011400212113E-1
898 868 -3.761970899462913
898 869 8.125000000011933E-1
898 870 1.5624999999900546
898 871 -2.7892561874535335
898 872 7.074888726090127E-1
898 873 -1.5075070809326294
898 877 -5.789961258680577
898 881 1.941626223796047
898 882 -4.6120224885889904E-1
898 883 8.332702632668262E-1
898 895 -5.509933870245031
898 896 -1.6587110930153153
898 897 -1.9746560630885348
898 898 2.0429056090831715E1
898 899 -1.096397726665528
898 900 1.5133430752319819
899 838 -3.972382315684391
899 839 1.4220789900237771
899 850 -4.908939241378742E-1
899 851 -2.004735977164426
899 852 5.292869271657897E-1
899 859 1.6123202946560302
899 860 -2.6866140665286338
899 861 -1.9670194451521752
899 868 3.1250000000119327E-1
899 869 -2.090542328027604
899 870 -3.4226190476319296E-1
899 871 2.6998887260945326E-1
899 872 -1.570506187452478
899 873 -1.496201761560721E-1
899 877 1.5123958254109384
899 881 -4.612022488588985E-1
899 882 -1.2053281914231313
899 883 1.8675413411328567
899 895 -1.6587110930153164
899 896 -2.884933870253868
899 897 -4.12156063114286E-1
899 898 -1.096397726665528
899 899 1.641504293653453E1
899 900 -9.478496691366974E-1
900 838 9.012456566867746E-1
900 839 -6.134366633940886
900 850 1.685422458314326
900 851 1.1245250224015435
900 852 -3.8749645694829136
900 859 2.682601140021221E-1
900 860 -1.9670194451521752
900 861 -1.2519034809719491
900 868 1.5624999999900544
900 869 -9.374999999989468E-1
900 870 -4.38260582006044
900 871 -1.5075070809326296
900 872 3.712131571809302E-1
900 873 -4.274027895357464
900 877 -2.380632766784146
900 881 8.332702632668251E-1
900 882 1.8675413411328563
900 883 6.70949499533784E-1
900 895 -1.9746560630885357
900 896 -4.1215606311428477E-1
900 897 -3.0293847571124175
900 898 1.5133430752319819
900 899 -9.478496691366974E-1
900 900 2.2276303657392283E1
901 744 6.319937552306533E-2
901 749 2.1840031223751463E-1
901 765 1.818165423521002E-1
901 768 8.442162052613169E-1
901 769 5.222209831788861E-1
901 772 -1.7270228517679027
901 773 -5.609497789900115E-1
901 862 -7.475952642005557E-2
901 863 9.00028872427727E-1
901 864 2.4849300314276923E-1
901 874 2.4620983867627264E-1
901 876 -4.368006244747323E-1
901 901 2.1946996978595735E1
901 902 5.057375187078041
901 909 -2.0444705880388934E1
901 910 -3.6400052039561035
901 923 -2.103764594330494
901 924 -9.711799268866721E-1
901 925 -1.9806591789416453E-1
901 926 5.84251270202553E-1
901 927 -6.559542635669071E-1
902 744 -1.1867201250275808E-1
902 749 1.2460561315666578
902 765 8.530039434839862E-1
902 768 3.723013395019634E-1
902 769 1.998145281561964
902 772 1.086930781632447E-1
902 773 -5.081198916697088
902 862 -7.080848585130891E-1
902 863 3.3358180815254346E-1
902 864 2.2114900499622276
902 874 2.1490479877874447
902 876 -2.492112263131622
902 901 5.057375187078041
902 902 5.087244095449954E1
902 909 -2.5983385372940284
902 910 -4.95844811264187E1
902 923 -1.725911589049703
902 924 -2.9832089595751348
902 925 -9.292389286906164E-1
902 926 -1.5477012865520596
902 927 2.566812716667192
903 82 3.56829714448005E-1
903 83 1.957298758484469E-1
903 84 -5.055642167468047E-1
903 903 1.0127487109290826E1
903 904 -1.1132152541593947E-1
903 905 -4.160708699530456
903 906 2.114584537795684E-1
903 907 -1.516519616899704E-1
903 908 -3.7676561353988347E-1
903 911 -4.372884512782142E-1
903 912 6.469751701989861E-1
903 913 6.29554989802634E-1
903 914 -4.536180911411186
903 915 -5.391459751635406E-1
903 916 2.649974016472764
903 917 -4.091530689368895
903 918 1.10319047056405
903 919 1.3495983551693975
903 920 -1.6307752254601051
903 921 -1.1437760543420328
903 922 4.1391116837234965E-1
904 82 -1.1677012414837182E-1
904 83 -7.343384844130076E-1
904 84 4.5973949658941193E-1
904 903 -1.1132152541593947E-1
904 904 9.186535417375593
904 905 -3.287231254925433E-1
904 906 2.233480383077996E-1
904 907 -1.075347074956369
904 908 1.2669319054254247E-1
904 911 2.7197517020121603E-1
904 912 -1.1660311696882095
904 913 -1.655062187694881
904 914 -2.2664597516672108E-1
904 915 -3.928895312738759
904 916 1.3792184897398994
904 917 1.1031904705640498
904 918 -1.8268576471711067
904 919 -4.9291902476218735E-1
904 920 -1.1437760543420332
904 921 -4.5506572840814163E-1
904 922 5.110531610777579E-1
905 82 -4.060928669969287E-1
905 83 -6.567707093209235E-2
905 84 7.96875512358199E-1
905 903 -4.160708699530456
905 904 -3.287231254925433E-1
905 905 1.383665934336516E1
905 906 -5.44542353388747E-1
905 907 6.334659527154989E-1
905 908 3.3492912605048825E-1
905 911 -1.144926292509928E-1
905 912 -1.655062187694882
905 913 -2.750087061275285
905 914 1.6827121116951267
905 915 1.3792184897398996
905 916 -9.959730667634016
905 917 2.2614227140718883
905 918 -9.996917869351432E-1
905 919 -2.4595724579640263
905 920 1.281701723400111
905 921 1.0364697285992621
905 922 2.0092620509947745E-1
906 862 5.220190978219854E-1
906 863 -2.8034822407233234E-1
906 864 -5.377411708399502E-1
906 884 -3.322316082719768
906 885 -3.818764489731651E-1
906 886 2.4810465054791067
906 892 -9.622066988640379E-1
906 893 -5.233166849347408E-1
906 894 6.22996053505851E-1
906 903 2.114584537795684E-1
906 904 2.233480383077996E-1
906 905 -5.44542353388747E-1
906 906 1.0608366206314912E1
906 907 3.915573895509311E-1
906 908 -4.101948246395803
906 914 4.066402000145183E-1
906 915 7.725954518893097E-1
906 916 4.8591448007306354E-1
906 920 -3.968083296551249
906 921 1.2389827506756927
906 922 9.654430143348375E-1
906 925 -3.4958778797959407
906 926 -1.4409422724434946
906 927 6.288317172316429E-1
907 862 -4.5973224072611674E-2
907 863 -1.8110590217586228E-1
907 864 -2.5872331369103596E-1
907 884 -2.4125144897511638E-1
907 885 -1.8892338873983583
907 886 7.175127577470595E-1
907 892 -8.581668493585573E-2
907 893 -2.2747066988572113
907 894 1.143829386844145
907 903 -1.516519616899704E-1
907 904 -1.075347074956369
907 905 6.334659527154989E-1
907 906 3.915573895509311E-1
907 907 8.882673613031473
907 908 -7.495534263648433E-1
907 914 3.350954518904248E-1
907 915 -4.449765278665067E-1
907 916 -1.5519915841554064
907 920 1.238982750675692
907 921 -1.392643051184488
907 922 -4.015858785967097E-1
907 925 -1.4409422724434942
907 926 -1.6246604705926824
907 927 4.670461055012918E-1
908 862 -3.810144996644512E-1
908 863 1.7702121463058035E-1
908 864 1.1603647528774064
908 884 1.71839769594173
908 885 7.175127577470597E-1
908 886 -6.324607421864591
908 892 1.0216272016322536E-1
908 893 1.143829386844144
908 894 -2.6755916649595988
908 903 -3.7676561353988347E-1
908 904 1.2669319054254247E-1
908 905 3.3492912605048825E-1
908 906 -4.101948246395803
908 907 -7.495534263648433E-1
908 908 1.1580159486064654E1
908 914 -1.837283770820511E-1
908 915 -1.551991584155406
908 916 -1.1259825921033702
908 920 1.7201746765092059
908 921 -8.373304069183266E-1
908 922 -1.8100052542951761
908 925 1.502721644068031
908 926 9.738188676742492E-1
908 927 -1.1392664317698167
909 749 -2.8102810171434622E-2
909 765 1.4784247560235317
909 772 7.797106016564626E-1
909 773 3.344051336402755E-1
909 836 -3.071193682021591
909 837 -2.3125354289098117
909 862 -3.1772798729349094E-1
909 863 -5.841969244269672E-1
909 864 3.782476039092795E-1
909 874 -3.11800624475283E-1
909 875 3.5487277542297435E-1
909 876 1.4249399131058205
909 889 -9.900509402688475E-1
909 890 -2.0017148397653046
909 891 -1.1234227601308255
909 901 -2.0444705880388934E1
909 902 -2.5983385372940284
909 909 3.1517416321985063E1
909 910 5.34411513271888
909 923 6.168557682395176E-2
909 924 2.514327816573758E-1
909 925 -1.610555082343271
909 926 -6.257001173862677
909 927 -2.739039255911434E-1
910 749 1.780080188082573E-1
910 765 2.147286062882955E-2
910 772 3.344051336402748E-1
910 773 1.85034821124741
910 836 -1.549886619391168
910 837 -6.168821624380539
910 862 6.944678420109709E-1
910 863 6.2027365810385926E-2
910 864 -1.6244663682409999
910 874 -2.4921122631316215
910 875 4.9949558810301664E-1
910 876 2.806380090718607
910 889 -1.684320196035005
910 890 -5.281846648885042E-1
910 891 -3.871746333947742
910 901 -3.6400052039561035
910 902 -4.95844811264187E1
910 909 5.34411513271888
910 910 6.210479849207209E1
910 923 2.514327816573782E-1
910 924 2.5702597182797544
910 925 -2.3391941103057142E-2
910 926 -2.739039255911412E-1
910 927 -5.275890968611277
911 68 5.950499233630371
911 82 -4.751816145330932
911 83 -1.696436311526198E-1
911 84 1.5624935498970953
911 91 5.878273689578771E-1
911 92 -5.874124237040311E-1
911 93 -6.786355765212103E-1
911 97 3.8314097272873857
911 98 1.6291736803771582
911 99 -2.1629220097039994
911 108 3.8731967296609007
911 903 -4.372884512782142E-1
911 904 2.7197517020121603E-1
911 905 -1.144926292509928E-1
911 911 4.111282120557941E1
911 912 -4.3778854395479385
911 913 -8.993828007134626
911 914 1.2430232222594906
911 915 -1.1103884986897647
911 916 -8.008942483766728E-1
911 917 -1.5457583472768562E1
911 918 1.5666383518696725E-1
911 919 1.3666632199737823
911 928 -1.3258384640937676E1
911 929 2.877302758471024
911 930 2.992875014368611
911 931 -1.574817648789382E1
911 932 7.471317769122611E-1
911 936 1.0450198821957912
911 937 -9.959793036071339E-1
911 938 1.311096762053805E-1
911 959 1.833147791929259
911 960 -1.567002877195781
912 68 -2.865583986691764
912 82 -4.196436311500752E-1
912 83 -4.267047062506534
912 84 1.4341537114366611
912 91 -1.118662423725786
912 92 -1.413552203764218
912 93 3.9893257250104835E-1
912 97 1.629173680377159
912 98 2.944201475840168
912 99 -7.83422438317149E-2
912 108 -1.4812641159343482E1
912 903 6.469751701989861E-1
912 904 -1.1660311696882095
912 905 -1.655062187694882
912 911 -4.3778854395479385
912 912 4.502994662243575E1
912 913 4.276629562878609
912 914 -5.895551653338306E-1
912 915 -9.680256301205055E-1
912 916 5.945670036803801E-1
912 917 1.566638351869656E-1
912 918 -1.363208635353481E1
912 919 -1.7084488102964308
912 928 3.252302758471674
912 929 -1.9199661878248776E1
912 930 -1.9566799130474166
912 931 3.3731967296599312
912 932 1.515509297966053
912 936 -9.855626369413131E-1
912 937 1.6873948601841093
912 938 4.432499309945592E-2
912 959 -1.5670028771957796
912 960 5.797502498746505
913 68 -1.684012370526758E1
913 82 2.4553506927538944
913 83 1.4341537114366605
913 84 -1.0957291577617738E1
913 91 -6.114331955666154E-1
913 92 3.989325725010483E-1
913 93 1.7724769410937888
913 97 -2.1629220097040007
913 98 -7.834224383171515E-2
913 99 6.207752323270371
913 108 -2.8655839866917643
913 903 6.29554989802634E-1
913 904 -1.655062187694881
913 905 -2.750087061275285
913 911 -8.993828007134626
913 912 4.276629562878609
913 913 4.7839114382387756E1
913 914 -9.337513912378519E-1
913 915 5.945670036803802E-1
913 916 2.140944552071524
913 917 1.366663219973782
913 918 -1.7084488102964293
913 919 -1.4169573247949264E1
913 928 2.4720416810637125
913 929 -1.9566799130474175
913 930 -1.4505863731469221E1
913 931 5.429665900265978
913 932 3.379296024830429
913 936 -3.984736571291707E-1
913 937 4.4324993099456866E-2
913 938 -2.116644900074772
913 959 7.471317769122632E-1
913 960 1.5155092979660512
914 878 8.634562750607623E-1
914 879 8.258887291446707E-2
914 880 1.4121278029296187
914 884 -4.414824842906887
914 885 -2.5694669897347264
914 886 -2.261155547648315E-1
914 903 -4.536180911411186
914 904 -2.2664597516672108E-1
914 905 1.6827121116951267
914 906 4.066402000145183E-1
914 907 3.350954518904248E-1
914 908 -1.837283770820511E-1
914 911 1.2430232222594906
914 912 -5.895551653338306E-1
914 913 -9.337513912378519E-1
914 914 2.3694527336548166E1
914 915 2.299367307468161
914 916 -2.5054299122961248
914 917 2.3196292115400385E-1
914 918 1.8548259038062467
914 919 -1.1905801328151226
914 920 -3.5474047235776873
914 921 -1.91065438898584
914 922 -2.760163931196108
914 928 -5.808638026050749
914 929 5.904244571006231E-1
914 930 1.446245322983439
914 932 3.2621492983119125
914 933 -2.485580623605696
914 934 1.4415453371243533E-1
914 935 -3.4652365280060105E-3
914 959 -5.646980827484738
914 960 -1.0134007671236872E-2
915 878 3.117555395812053E-1
915 879 2.411301266854117E-1
915 880 1.8616497049162248
915 884 -1.986133656401904
915 885 -6.937030708945851
915 886 3.9306921741850115E-1
915 903 -5.391459751635406E-1
915 904 -3.928895312738759
915 905 1.3792184897398996
915 906 7.725954518893097E-1
915 907 -4.449765278665067E-1
915 908 -1.551991584155406
915 911 -1.1103884986897647
915 912 -9.680256301205055E-1
915 913 5.945670036803802E-1
915 914 2.299367307468161
915 915 2.692919032681482E1
915 916 1.3294973435952544
915 917 1.8548259038062485
915 918 -4.373481006000608E-1
915 919 1.4554566872167018
915 920 -1.910654388985841
915 921 -1.8904593341835347
915 922 -1.8244662746312976
915 928 2.362577904318223E-1
915 929 -9.068166213608732
915 930 -3.495699987780144
915 932 2.576243365601162E-1
915 933 8.165453373554614E-2
915 934 -2.070536449976459
915 935 -3.989249365602313E-1
915 959 -1.013400767123629E-2
915 960 -1.424882175459823
916 878 8.912944696120985E-1
916 879 1.8616497049162253
916 880 3.1559611519548963E-1
916 884 -1.5171079284610495E-1
916 885 3.930692174184999E-1
916 886 -3.335174550045443
916 903 2.649974016472764
916 904 1.3792184897398994
916 905 -9.959730667634016
916 906 4.8591448007306354E-1
916 907 -1.5519915841554064
916 908 -1.1259825921033702
916 911 -8.008942483766728E-1
916 912 5.945670036803801E-1
916 913 2.140944552071524
916 914 -2.5054299122961248
916 915 1.3294973435952544
916 916 3.131641998127882E1
916 917 -1.190580132815123
916 918 1.4554566872167012
916 919 1.452004298537847
916 920 -2.760163931196108
916 921 -1.8244662746312974
916 922 -1.8590695473547139
916 928 9.254119896170792E-1
916 929 -3.495699987780143
916 930 -8.007356923264739
916 932 -3.050222117826711
916 933 -8.059652365567823E-1
916 934 -3.989249365602312E-1
916 935 -7.887428548854693
916 959 3.262149298311913
916 960 2.5762433656011663E-1
917 39 -4.431274803487724
917 40 1.7888418054070185
917 41 1.5462330978397465
917 68 -2.9938814457449627
917 82 -8.069237296328997E-1
917 83 -9.536278859830044E-1
917 84 1.0195125820477615
917 97 -8.900448434422797
917 98 1.4799077542429593
917 99 2.5028943362976728
917 108 -1.1029965332706482
917 725 -8.535351513721362E-1
917 726 -1.6259740293053626
917 727 -2.4375908130971646E-1
917 903 -4.091530689368895
917 904 1.1031904705640498
917 905 2.2614227140718883
917 911 -1.5457583472768562E1
917 912 1.566638351869656E-1
917 913 1.366663219973782
917 914 2.3196292115400385E-1
917 915 1.8548259038062485
917 916 -1.190580132815123
917 917 3.3685979108688066E1
917 918 -2.4801229227804935
917 919 -6.864564100249576
917 920 -1.5253436603199435
917 921 1.2938058758977888E-1
917 922 -1.4031435199745634E-1
917 928 4.451570390801787
917 929 -9.536316464479846E-1
917 930 -1.9495902679025248
917 931 7.927478695970616
917 932 4.685963429788509
917 959 -1.0230351175241506E1
917 960 6.035426609904727E-1
918 39 1.788841805407018
918 40 -2.0742817644288656
918 41 -3.736318509882833E-1
918 68 -1.518994018774321
918 82 -9.536278859830042E-1
918 83 9.011911832067532E-2
918 84 1.0680164456772687
918 97 1.4799077542429577
918 98 -1.1738259125633709E1
918 99 -2.358665082586109
918 108 5.0720173268624675
918 725 -1.6259740293053628
918 726 2.490383577001718E-1
918 727 3.5691014875060056E-1
918 903 1.10319047056405
918 904 -1.8268576471711067
918 905 -9.996917869351432E-1
918 911 1.5666383518696725E-1
918 912 -1.363208635353481E1
918 913 -1.7084488102964293
918 914 1.8548259038062467
918 915 -4.373481006000608E-1
918 916 1.4554566872167012
918 917 -2.4801229227804935
918 918 3.432348259597957E1
918 919 3.5208242864752943
918 920 1.2938058758978116E-1
918 921 -6.54866892802106
918 922 -9.773576550451946E-1
918 928 -9.536316464479848E-1
918 929 6.785558776540671
918 930 1.6554017060123303
918 931 -1.1029965332706486
918 932 -1.1982006950671445E-1
918 959 6.035426609904734E-1
918 960 -1.0262714256013943E1
919 39 2.5673348057749688
919 40 -9.704326937381109E-1
919 41 -2.146648659786611
919 68 5.223252039837477
919 82 1.6917490317226663E-1
919 83 5.216721746538612E-1
919 84 1.2777748508831586
919 97 2.62919059099744
919 98 -3.4281771625400417
919 99 -1.072182876089579E1
919 108 -1.5189940187743205
919 725 5.417690228930059E-1
919 726 9.196494665315774E-1
919 727 1.130418763226408
919 903 1.3495983551693975
919 904 -4.9291902476218735E-1
919 905 -2.4595724579640263
919 911 1.3666632199737823
919 912 -1.7084488102964308
919 913 -1.4169573247949264E1
919 914 -1.1905801328151226
919 915 1.4554566872167018
919 916 1.452004298537847
919 917 -6.864564100249576
919 918 3.5208242864752943
919 919 3.71691559859567E1
919 920 -3.1107838105718144E-1
919 921 1.6578745872804057E-1
919 922 -1.405365545223189
919 928 -1.9495902679025243
919 929 1.6554017060123312
919 930 3.9165942648187215
919 931 -2.9938814457449645
919 932 -1.9266211531441428E1
919 959 4.685963429788507
919 960 -1.1982006950671381E-1
920 725 -6.05240944043076
920 726 2.297226633619701
920 727 -1.0447444777726145
920 736 -1.103279417614906
920 737 2.5454708788230263
920 765 -1.6332166062241573
920 767 2.685674748401394
920 884 3.5248745093785367
920 885 1.9537841796782554
920 886 -1.91352515186294
920 903 -1.6307752254601051
920 904 -1.1437760543420332
920 905 1.281701723400111
920 906 -3.968083296551249
920 907 1.238982750675692
920 908 1.7201746765092059
920 914 -3.5474047235776873
920 915 -1.910654388985841
920 916 -2.760163931196108
920 917 -1.5253436603199435
920 918 1.2938058758978116E-1
920 919 -3.1107838105718144E-1
920 920 3.412709667129426E1
920 921 -3.123112160776872E-1
920 922 1.0202639266670621
920 923 -1.9813972868593714
920 924 -7.890578008011775E-1
920 925 -1.2780857771280921E1
920 926 -6.986973322491008E-2
920 927 -4.404700571751211E-1
920 932 6.914285944657342E-1
920 959 -9.19955520522935
920 960 9.019139455413187E-1
921 725 2.2972266336197014
921 726 -3.3269160857296467
921 727 4.1945332191249596E-1
921 736 2.9048146324977977
921 737 1.2210528577784359
921 765 -1.9813972868593714
921 767 -1.1032794176149054
921 884 1.953784179678252
921 885 1.7818074587582675
921 886 1.4307417126009585
921 903 -1.1437760543420328
921 904 -4.5506572840814163E-1
921 905 1.0364697285992621
921 906 1.2389827506756927
921 907 -1.392643051184488
921 908 -8.373304069183266E-1
921 914 -1.91065438898584
921 915 -1.8904593341835347
921 916 -1.8244662746312974
921 917 1.2938058758977888E-1
921 918 -6.54866892802106
921 919 1.6578745872804057E-1
921 920 -3.123112160776872E-1
921 921 3.725086561854624E1
921 922 -2.575506903789524
921 923 -2.2235503745659115
921 924 -1.9787199366650372
921 925 -6.986973322490742E-2
921 926 -1.692455722940057E1
921 927 4.10995997357607
921 932 -1.1674415311910775
921 959 9.019139455413199E-1
921 960 -9.175626978308943
922 725 -5.640387762175547E-2
922 726 5.312286644884928E-2
922 727 -2.2851766186825833
922 736 1.2210528577784356
922 737 1.6204393113221502
922 765 -2.0509016768653293E-1
922 767 2.545470878823027
922 884 -1.9135251518629373
922 885 1.430741712600958
922 886 3.4605559975722483E-1
922 903 4.1391116837234965E-1
922 904 5.110531610777579E-1
922 905 2.0092620509947745E-1
922 906 9.654430143348375E-1
922 907 -4.015858785967097E-1
922 908 -1.8100052542951761
922 914 -2.760163931196108
922 915 -1.8244662746312976
922 916 -1.8590695473547139
922 917 -1.4031435199745634E-1
922 918 -9.773576550451946E-1
922 919 -1.405365545223189
922 920 1.0202639266670621
922 921 -2.575506903789524
922 922 3.461513533582181E1
922 923 -1.2713193512134167
922 924 -7.929264964673962E-1
922 925 -5.61020102298227E-1
922 926 5.001706996561217
922 927 -1.2854269239027758E1
922 932 -1.5775743750949836E1
922 959 6.914285944657335E-1
922 960 -1.1674415311910742
923 721 -1.792605236798753
923 725 1.3493900303539603
923 726 -3.274888763136306
923 727 5.341104395475734E-1
923 736 -6.2020394649074975
923 737 -3.9465338572630486
923 744 -3.913451285315261E-1
923 747 -1.3525095662834998
923 748 1.7630396391688887
923 749 -1.61373289181825
923 761 -1.442002217750482E-1
923 762 9.699289976169592E-2
923 765 2.804513344493883
923 767 -9.676181199365681E-2
923 768 4.345701706032552E-1
923 769 -1.3018476475290945
923 771 2.7847003428107038
923 772 -9.353762410333436
923 773 -6.403701952211731E-1
923 836 1.4206192899921544
923 837 1.9482526084179241
923 874 1.818165423521001E-1
923 875 1.6840284753930728
923 876 1.4784247560235348
923 901 -2.103764594330494
923 902 -1.725911589049703
923 909 6.168557682395176E-2
923 910 2.514327816573782E-1
923 920 -1.9813972868593714
923 921 -2.2235503745659115
923 922 -1.2713193512134167
923 923 2.8623553022956752E1
923 924 3.831186187160764
923 925 -1.9182262413551976
923 926 -7.352856855472607
923 927 -5.60692619079604E-1
924 721 4.9661823050287775E-2
924 725 4.741249431773492E-1
924 726 -4.3822224619560224E-1
924 727 1.0790914888952463E-1
924 736 -3.9465338572630486
924 737 -1.2237431161346194E1
924 744 -4.8380703740741426E-1
924 747 2.0993824674999986
924 748 2.7847003428107033
924 749 -4.807328512536837E-2
924 761 5.18916177663991E-1
924 762 -2.4816296351136615
924 765 3.403718226547003
924 767 -1.9234275522430647E-1
924 768 -4.179802948552834E-1
924 769 2.6976939300366025
924 771 1.7169728861674947
924 772 -6.403701952211729E-1
924 773 -7.275214777522164
924 836 1.9482526084179228
924 837 -1.8994078484200887
924 874 4.1725941516061205E-1
924 875 -1.865648372702723
924 876 2.1472860628832868E-2
924 901 -9.711799268866721E-1
924 902 -2.9832089595751348
924 909 2.514327816573758E-1
924 910 2.5702597182797544
924 920 -7.890578008011775E-1
924 921 -1.9787199366650372
924 922 -7.929264964673962E-1
924 923 3.831186187160764
924 924 2.9104206686776934E1
924 925 -3.5559448394167985
924 926 -4.722272860102372E-1
924 927 -8.527223491705676
925 736 1.4001745638670362
925 737 2.5902297702000316
925 765 -1.1903838893194928E1
925 767 1.1135354183925235
925 836 -1.3896246911024446
925 837 7.930077024680267E-1
925 862 -7.387555252186788E-1
925 863 9.921133652996441E-1
925 864 9.580495651363586E-1
925 874 8.785558509645763E-1
925 875 -3.4163586746265446
925 876 -3.4719551154314687
925 884 -5.4128677963221
925 885 -1.6944635876125935
925 886 -3.2339295592341473
925 889 -1.1848326740289823
925 890 1.6128119800374299
925 891 -2.6893638032014855E-1
925 892 -2.449535865750802
925 893 1.0617105735531849
925 894 -1.263941159018271
925 901 -1.9806591789416453E-1
925 902 -9.292389286906164E-1
925 906 -3.4958778797959407
925 907 -1.4409422724434942
925 908 1.502721644068031
925 909 -1.610555082343271
925 910 -2.3391941103057142E-2
925 920 -1.2780857771280921E1
925 921 -6.986973322490742E-2
925 922 -5.61020102298227E-1
925 923 -1.9182262413551976
925 924 -3.5559448394167985
925 925 3.878117809150601E1
925 926 3.1785604215100656
925 927 4.212819556904561
925 932 -2.204253286957431E-1
925 959 4.081610834787254
925 960 7.637662170871061E-2
926 736 3.5995870639807324
926 737 1.797366292781994E-1
926 765 -1.9182262413551956
926 767 1.400174563867036
926 836 -5.279738456320869
926 837 3.22105445142572
926 862 9.921133652996439E-1
926 863 -8.067899935443414E-1
926 864 -8.869169832355516E-1
926 874 -1.980659178941645E-1
926 875 -1.3896246911024444
926 876 -1.6105550823432733
926 884 -1.6944635876125909
926 885 -2.7705757094777503
926 886 -7.361925043079967E-1
926 889 1.612811980037431
926 890 -2.6900354526126176
926 891 1.9676828302249911
926 892 1.0617105735531855
926 893 -5.445707518702771E-1
926 894 -2.6343427147440873E-1
926 901 5.84251270202553E-1
926 902 -1.5477012865520596
926 906 -1.4409422724434946
926 907 -1.6246604705926824
926 908 9.738188676742492E-1
926 909 -6.257001173862677
926 910 -2.739039255911412E-1
926 920 -6.986973322491008E-2
926 921 -1.692455722940057E1
926 922 5.001706996561217
926 923 -7.352856855472607
926 924 -4.722272860102372E-1
926 925 3.1785604215100656
926 926 3.874679989117705E1
926 927 -3.8845446439927747
926 932 -3.2790788740002075
926 959 7.63766217087086E-2
926 960 1.320147867794056
927 736 1.7973662927819986E-1
927 737 4.3191589281416585
927 765 -2.682054912580412
927 767 2.5902297702000308
927 836 3.2210544514257204
927 837 -9.50358965296662
927 862 3.6281146988748847E-1
927 863 -2.916788879932303E-1
927 864 3.749885724831442E-1
927 874 -4.545508785648422E-1
927 875 7.930077024680282E-1
927 876 -2.3391941103062343E-2
927 884 -3.2339295592341495
927 885 -7.361925043079958E-1
927 886 -5.675675473464004
927 889 -2.6893638032014766E-1
927 890 1.9676828302249905
927 891 -1.2547499203973613
927 892 -1.2639411590182705
927 893 -2.634342714744086E-1
927 894 -4.522433119511489E-1
927 901 -6.559542635669071E-1
927 902 2.566812716667192
927 906 6.288317172316429E-1
927 907 4.670461055012918E-1
927 908 -1.1392664317698167
927 909 -2.739039255911434E-1
927 910 -5.275890968611277
927 920 -4.404700571751211E-1
927 921 4.10995997357607
927 922 -1.2854269239027758E1
927 923 -5.60692619079604E-1
927 924 -8.527223491705676
927 925 4.212819556904561
927 926 -3.8845446439927747
927 927 3.765441547062822E1
927 932 -2.3246719802655402E-1
927 959 -2.2042532869574638E-1
927 960 -3.27907887400021
928 911 -1.3258384640937676E1
928 912 3.252302758471674
928 913 2.4720416810637125
928 914 -5.808638026050749
928 915 2.362577904318223E-1
928 916 9.254119896170792E-1
928 917 4.451570390801787
928 918 -9.536316464479848E-1
928 919 -1.9495902679025243
928 928 2.665574116741296E1
928 929 -4.0445114823362305
928 930 -4.652158934305982
928 932 1.6507085472514018
928 933 -2.07190405956638
928 934 -2.7121840766754596E-1
928 935 3.2386827933822826E-1
928 936 -3.139279949996
928 937 9.733657353120657E-1
928 938 1.2297187049380818
928 959 -6.82910488166395
928 960 8.074352522361992E-1
929 911 2.877302758471024
929 912 -1.9199661878248776E1
929 913 -1.9566799130474175
929 914 5.904244571006231E-1
929 915 -9.068166213608732
929 916 -3.495699987780143
929 917 -9.536316464479846E-1
929 918 6.785558776540671
929 919 1.6554017060123312
929 928 -4.0445114823362305
929 929 3.6369455882468856E1
929 930 4.385935155840743
929 932 -1.4016205303430112
929 933 1.0378159233310824E-1
929 934 -3.6117208044776103
929 935 2.234824815917455
929 936 6.19199068643262E-1
929 937 -4.3061735256310225
929 938 -1.4221612465999565
929 959 8.074352522361979E-1
929 960 -6.969292237043391
930 911 2.992875014368611
930 912 -1.9566799130474166
930 913 -1.4505863731469221E1
930 914 1.446245322983439
930 915 -3.495699987780144
930 916 -8.007356923264739
930 917 -1.9495902679025248
930 918 1.6554017060123303
930 919 3.9165942648187215
930 928 -4.652158934305982
930 929 4.385935155840743
930 930 3.341827789786675E1
930 932 -4.540154012858764
930 933 -1.9696505396666947E-1
930 934 2.2348248159174555
930 935 -4.6226213892521235
930 936 7.088853715717207E-1
930 937 -1.422161246599957
930 938 -5.65887610584063
930 959 1.6507085472514014
930 960 -1.4016205303430105
931 52 -8.580151036721961
931 53 -1.8369742162516602
931 54 -2.4478119966718555
931 67 9.214721846135544E-2
931 68 -1.586853757759908
931 72 2.434544218206448
931 73 3.1431116149539577
931 74 1.2906454565668857E-1
931 91 -7.491067004208749
931 92 -1.4438501282471718
931 93 1.918270291921675
931 97 -4.055671877371689
931 98 9.838921677375504E-1
931 99 -1.686335438182382
931 106 -6.192897588977871E-1
931 107 -7.318664376030024E-1
931 108 -1.9710527241045017
931 110 -5.5605285523310695
931 111 2.746114780124209
931 911 -1.574817648789382E1
931 912 3.3731967296599312
931 913 5.429665900265978
931 917 7.927478695970616
931 918 -1.1029965332706486
931 919 -2.9938814457449645
931 931 4.552128183284803E1
931 932 1.1085961944663478
931 936 -9.229918561573102
931 937 2.9699368713407264
931 938 -3.1059731273668936
931 956 2.1204328848484721E-1
931 959 -4.59850146802691
931 960 -3.1984437978702793
932 17 2.629845443638751
932 18 -8.040117997331086
932 22 -6.44642524366695E-2
932 23 -5.09045136069165E-2
932 39 -2.6369995032355638
932 40 3.966909036357597
932 41 -9.050364410246408
932 44 -2.398430002879044
932 45 -7.883435082419612E-1
932 47 -3.6689044571813243
932 48 -8.850761381245667E-2
932 68 6.425767140922808E-1
932 72 -9.551902478930786E-1
932 73 2.1632563201590466E-1
932 74 3.676391180631809
932 97 1.4944560378905264E-1
932 98 3.3008016153817437
932 99 1.2956332330993403
932 108 4.313513791372203E-1
932 110 7.323449754528924E-2
932 111 5.608903602891131E-3
932 725 -2.5991756409600226
932 726 -2.0992381437419025
932 727 -9.860812609289288
932 728 5.618500813460135
932 734 -9.55096366735716
932 735 5.545392136002956
932 736 2.7502738603816957E-2
932 737 -9.369544001359273
932 767 -3.1182772475609258E-3
932 836 -1.4794274808085441
932 837 3.359614419119209
932 838 1.5569271795867512
932 839 3.2890860989320165
932 853 -6.648627453616913E-1
932 854 1.1197771081249692
932 855 -1.4521604831820571E1
932 859 1.9664539984915685E-1
932 860 3.170894630237753
932 861 -1.0917539662636633E-1
932 875 5.360405956795613E-1
932 877 -4.7200491367270814E-1
932 878 3.972970064306757E-11
932 879 -7.178424075213381E-12
932 880 -1.157033138617826
932 881 -2.0711146729460426
932 882 1.2511870869648343
932 883 4.6805461198535836E-1
932 884 2.0270526897841172
932 885 -1.236990408944067
932 886 6.396008309805947E-1
932 911 7.471317769122611E-1
932 912 1.515509297966053
932 913 3.379296024830429
932 914 3.2621492983119125
932 915 2.576243365601162E-1
932 916 -3.050222117826711
932 917 4.685963429788509
932 918 -1.1982006950671445E-1
932 919 -1.9266211531441428E1
932 920 6.914285944657342E-1
932 921 -1.1674415311910775
932 922 -1.5775743750949836E1
932 925 -2.204253286957431E-1
932 926 -3.2790788740002075
932 927 -2.3246719802655402E-1
932 928 1.6507085472514018
932 929 -1.4016205303430112
932 930 -4.540154012858764
932 931 1.1085961944663478
932 932 9.799556310612317E1
932 933 -5.551115123125783E-16
932 935 -1.7392727848229734
932 936 -3.105397868235687
932 937 -7.3662145694101E-1
932 938 -2.103597081626633
932 939 -3.7658742991191496
932 940 1.0589102304959413E-2
932 941 -2.689820620521937
932 951 -3.379934673563795
932 952 -1.9109407906959108E-1
932 953 -1.5018025136943457E1
932 954 2.561002923604569
932 955 2.042698886418703
932 956 -3.532612491017155
932 957 2.4555857700505372
932 958 7.241028063316421E-1
932 959 -4.3783833893016866E-1
932 960 4.0821653722714824E-1
933 878 -4.0328501845335074E-1
933 879 -5.817137758833266E-1
933 880 -1.4121278029712925
933 881 -1.2475653045247574
933 882 -8.396551331301643E-1
933 883 1.4121278029350477
933 914 -2.485580623605696
933 915 8.165453373554614E-2
933 916 -8.059652365567823E-1
933 928 -2.07190405956638
933 929 1.0378159233310824E-1
933 930 -1.9696505396666947E-1
933 932 -5.551115123125783E-16
933 933 2.1953505108439803E1
933 934 6.94051073036982E-1
933 935 -3.909159835873635
933 936 5.005681481489229E-1
933 937 5.947726725084563E-1
933 938 1.0651870120173249E-1
933 939 -1.1897556288381113E1
933 940 -5.289096260060186E-2
933 941 4.805571425231603
933 959 -4.348181962057433
933 960 2.7755575615628914E-16
934 878 -2.2754710921482763E-1
934 879 -1.5165949926359272
934 880 -1.861649704987026
934 881 -6.313217997971138E-1
934 882 -1.2287928061383826
934 883 1.8616497049223333
934 914 1.4415453371243533E-1
934 915 -2.070536449976459
934 916 -3.989249365602312E-1
934 928 -2.7121840766754596E-1
934 929 -3.6117208044776103
934 930 2.2348248159174555
934 933 6.94051073036982E-1
934 934 2.1215853701772296E1
934 935 -9.375815694563308E-1
934 936 3.239393391985166E-1
934 937 -3.79796085195508E-1
934 938 -1.208593260638625
934 939 -3.205762926844698E-2
934 940 -1.066913977852544E1
934 941 3.10274950802424E-1
934 959 5.551115123125783E-16
934 960 -1.7392727848229734
935 878 -8.912944696160605E-1
935 879 -1.8616497049870255
935 880 -5.485371462335664E-1
935 881 8.912944696051308E-1
935 882 1.8616497049223324
935 883 -7.075308887571927E-1
935 914 -3.4652365280060105E-3
935 915 -3.989249365602313E-1
935 916 -7.887428548854693
935 928 3.2386827933822826E-1
935 929 2.234824815917455
935 930 -4.6226213892521235
935 932 -1.7392727848229734
935 933 -3.909159835873635
935 934 -9.375815694563308E-1
935 935 4.024304632872286E1
935 936 -1.7514796549712655E-1
935 937 -1.208593260638625
935 938 1.6562187151778107
935 939 3.763904758571477
935 940 3.102749508024252E-1
935 941 -2.639387428598013E1
935 959 -1.1102230246251565E-15
936 52 -1.5347625007981042E-1
936 53 -8.930765508081198E-1
936 54 2.7359359533591965E-1
936 68 -3.6268064606605357
936 72 -1.4716743141744497
936 73 3.626156124873166E-1
936 108 3.4907702046751323
936 911 1.0450198821957912
936 912 -9.855626369413131E-1
936 913 -3.984736571291707E-1
936 928 -3.139279949996
936 929 6.19199068643262E-1
936 930 7.088853715717207E-1
936 931 -9.229918561573102
936 932 -3.105397868235687
936 933 5.005681481489229E-1
936 934 3.239393391985166E-1
936 935 -1.7514796549712655E-1
936 936 5.245998394264831E1
936 937 -3.2397303127380113
936 938 1.857263040481096E1
936 939 -1.6855752951085874
936 940 2.9824500433553175E-1
936 941 1.8055141875264413E-1
936 942 -3.479682764509782E1
936 943 3.0369734135411586E-1
936 944 -1.6081301592198514E1
936 951 2.327977796491802
936 952 -7.806440256693827E-1
936 953 3.288851140762471
936 956 1.6832139237664339
936 959 -5.85679775345505
936 960 -8.200513558161651E-1
937 52 -1.2159932174518453
937 53 -9.329779372982109E-1
937 54 -1.0405900033163231
937 68 4.548627288137276
937 72 1.6832139237664328
937 73 -9.660063755055068E-1
937 108 -1.0684068093821251E1
937 911 -9.959793036071339E-1
937 912 1.6873948601841093
937 913 4.4324993099456866E-2
937 928 9.733657353120657E-1
937 929 -4.3061735256310225
937 930 -1.422161246599957
937 931 2.9699368713407264
937 932 -7.3662145694101E-1
937 933 5.947726725084563E-1
937 934 -3.79796085195508E-1
937 935 -1.208593260638625
937 936 -3.2397303127380113
937 937 4.473203128605924E1
937 938 -4.202756561850027
937 939 4.857450043353899E-1
937 940 -4.303755312086272
937 941 2.6759825636871515
937 942 3.4536400801946565E-1
937 943 -2.3699844987191756E1
937 944 4.347568392801925E-1
937 951 -7.806440256693822E-1
937 952 5.145690015962312E-1
937 953 1.8730372206473707
937 956 -9.968964696551227E-1
937 959 -8.200513558161642E-1
937 960 -1.630482736960431
938 52 -1.6823071367434883E-2
938 53 -1.0405900033163236
938 54 7.100803693230051E-1
938 68 -1.2009517574377316E1
938 72 3.626156124873167E-1
938 73 1.0324784861533836
938 108 4.548627288137277
938 911 1.311096762053805E-1
938 912 4.432499309945592E-2
938 913 -2.116644900074772
938 928 1.2297187049380818
938 929 -1.4221612465999565
938 930 -5.65887610584063
938 931 -3.1059731273668936
938 932 -2.103597081626633
938 933 1.0651870120173249E-1
938 934 -1.208593260638625
938 935 1.6562187151778107
938 936 1.857263040481096E1
938 937 -4.202756561850027
938 938 7.05247169337033E1
938 939 -3.4028191457732637E-1
938 940 2.6759825636871515
938 941 -2.293454195970117
938 942 -1.71229682588586E1
938 943 4.347568392801929E-1
938 944 -4.870619956967748E1
938 951 3.2888511407624694
938 952 1.8730372206473702
938 953 -1.0352050767905416
938 956 -9.660063755055057E-1
938 959 -3.1053978682356864
938 960 -7.366214569410102E-1
939 840 3.371051527244572E-1
939 853 -3.917151022932267
939 854 -2.0503804400532424
939 855 2.7392645641315037
939 881 -2.736697437403331
939 882 -1.6813475326120741
939 883 -1.171513914696634
939 887 3.913368783272161E-1
939 888 1.6698087013178242E-1
939 932 -3.7658742991191496
939 933 -1.1897556288381113E1
939 934 -3.205762926844698E-2
939 935 3.763904758571477
939 936 -1.6855752951085874
939 937 4.857450043353899E-1
939 938 -3.4028191457732637E-1
939 939 2.813863943900374E1
939 940 2.1173494501599253
939 941 -1.6481164898427125
939 942 -4.977507478918919E-1
939 943 -9.096369855788761E-1
939 944 1.289884290486298E-1
939 948 -4.5499781896417
939 949 -2.2639171340329273E-1
939 950 -1.6848309597236923
939 951 9.565025281205547E-1
939 952 1.8945110746354188
939 953 1.8114789560761195
939 959 -4.201769864092622
939 960 6.51036190607402E-2
940 840 -4.49521470893088E-1
940 853 -2.050380440053242
940 854 -2.0564316678712684
940 855 1.830166428224646
940 881 -1.1813475326110314
940 882 -5.713127333018143
940 883 -2.2706890724521047
940 887 7.746051527248545E-1
940 888 1.5479652410757776
940 932 1.0589102304959413E-2
940 933 -5.289096260060186E-2
940 934 -1.066913977852544E1
940 935 3.102749508024252E-1
940 936 2.9824500433553175E-1
940 937 -4.303755312086272
940 938 2.6759825636871515
940 939 2.1173494501599253
940 940 2.955679909132194E1
940 941 2.3072339335754533E-1
940 942 -1.3263036522471197
940 943 -1.5790386273845938
940 944 -1.182868655053002
940 948 -5.38891713404479E-1
940 949 -3.9416762871251088
940 950 -1.3800134310053642
940 951 1.894511074635419
940 952 7.439919688054358E-1
940 953 -1.7721305209420333
940 959 6.510361906074114E-2
940 960 -1.58810058322346
941 840 1.5479652410757785
941 853 2.739264564131505
941 854 1.8301664282246457
941 855 -2.0284298889031778
941 881 -7.250853432853595E-1
941 882 -2.2706890724521043
941 883 -2.498101590069157
941 887 -5.026619870359385E-1
941 888 -1.1287607962721071
941 932 -2.689820620521937
941 933 4.805571425231603
941 934 3.10274950802424E-1
941 935 -2.639387428598013E1
941 936 1.8055141875264413E-1
941 937 2.6759825636871515
941 938 -2.293454195970117
941 939 -1.6481164898427125
941 940 2.3072339335754533E-1
941 941 4.499588115419455E1
941 942 -2.4303538044377693E-1
941 943 -1.1828686550530023
941 944 1.0136023019524876E-2
941 948 -2.6520928644649397
941 949 -1.380013431005364
941 950 -9.991096068039079
941 951 1.8114789560761206
941 952 -1.7721305209420322
941 953 2.017520268541626
941 959 -3.7658742991191505
941 960 1.058910230495853E-2
942 52 1.0879259414654043
942 53 8.68415417527425E-1
942 54 3.955401755167678E-1
942 58 -3.1733655351213963E-1
942 59 -7.312926991217987E-1
942 60 1.1551060463215657E-1
942 72 -6.756651203137812E-1
942 73 3.6727823029637977E-13
942 936 -3.479682764509782E1
942 937 3.4536400801946565E-1
942 938 -1.71229682588586E1
942 939 -4.977507478918919E-1
942 940 -1.3263036522471197
942 941 -2.4303538044377693E-1
942 942 4.608648599617681E1
942 943 7.89803419268577E-1
942 944 1.8302393241902298E1
942 945 -4.754234043481663
942 946 -1.6940578158257125E-1
942 947 -1.5644756296475004
942 948 -4.3620792743237485E-1
942 949 2.716700560834946E-1
942 950 1.1703524689866995E-1
942 951 -5.6963898999125435
942 952 -1.290010593019938
942 953 -3.8062575106483705E-13
942 956 1.241759825072466
943 52 7.017487508607648E-1
943 53 -2.0709867981797195E-1
943 54 1.6384414704193269
943 58 -1.0646260324572414
943 59 -1.1303629905272319
943 60 -1.0240259189031105
943 72 1.241759825072466
943 73 1.2886293942009837E-14
943 936 3.0369734135411586E-1
943 937 -2.3699844987191756E1
943 938 4.347568392801929E-1
943 939 -9.096369855788761E-1
943 940 -1.5790386273845938
943 941 -1.1828686550530023
943 942 7.89803419268577E-1
943 943 3.4619835320010786E1
943 944 -8.86835663061773E-2
943 945 -4.194057815841546E-1
943 946 -4.268599810536356
943 947 -1.433636286640882
943 948 6.46670056084288E-1
943 949 -1.1661702104510583
943 950 1.6560161172036536
943 951 -1.2900105930199384
943 952 -2.8105400013895045
943 953 -1.3556149766896897E-14
943 956 2.4181998728769022E-1
944 52 9.163735088467602E-1
944 53 1.6384414704193273
944 54 2.516649319001033E-1
944 58 -1.821084429491145E-1
944 59 -1.0240259189031105
944 60 5.268035253269427E-1
944 72 3.6715898111872823E-13
944 73 1.3244548460493917
944 936 -1.6081301592198514E1
944 937 4.347568392801925E-1
944 938 -4.870619956967748E1
944 939 1.289884290486298E-1
944 940 -1.182868655053002
944 941 1.0136023019524876E-2
944 942 1.8302393241902298E1
944 943 -8.86835663061773E-2
944 944 6.423955078432242E1
944 945 -2.4573327724698997
944 946 -1.433636286640882
944 947 -1.0960028888181661E1
944 948 -6.270123721801474E-1
944 949 1.6560161172036527
944 950 -2.7511391058563537
944 951 -3.795781456553921E-13
944 952 -1.3605946484893161E-14
944 953 -3.9352425469028742
944 956 1.2771418211368311E-14
945 58 -1.6437400211523427
945 59 5.242572269788628E-1
945 60 -7.973816534321678E-1
945 64 5.252940244278279E-1
945 65 1.7762312632711724E-1
945 66 4.673107643855882E-1
945 72 -3.647477226016952
945 73 -1.5725697167952986
945 942 -4.754234043481663
945 943 -4.194057815841546E-1
945 944 -2.4573327724698997
945 945 9.973929198730616
945 946 -1.2877683453349897E-1
945 947 4.123950415624755
945 948 3.567278199129245E-1
945 949 -1.1804143298296316E-1
945 950 4.061937645370885E-1
945 951 -8.104997524204101E-1
945 952 -9.532907369046371E-1
945 953 -1.7017080185006622E-1
945 956 9.176344326992738E-1
946 58 2.1175722697767668E-1
946 59 -2.250782812332435
946 60 1.7920453582965545
946 64 -7.237687367446582E-2
946 65 -3.631808628534176E-1
946 66 -2.7307357830769635E-1
946 72 9.176344326992736E-1
946 73 5.025435863347423E-1
946 942 -1.6940578158257125E-1
946 943 -4.268599810536356
946 944 -1.433636286640882
946 945 -1.2877683453349897E-1
946 946 9.38515188244158
946 947 -1.3152320139808668E-1
946 948 1.9445856701822284E-1
946 949 -7.348847599682067E-1
946 950 6.571492537356771E-2
946 951 -9.532907369046371E-1
946 952 8.985762330099761E-2
946 953 -5.22070803658199E-1
946 956 -1.8575612600521612
947 58 2.1070727548539003E-2
947 59 1.792045358296555
947 60 -5.266295328531041
947 64 4.2554637844771925E-1
947 65 2.73073578498778E-1
947 66 1.3002273347295175
947 72 -2.4896862672780853
947 73 -2.9999948246110604
947 942 -1.5644756296475004
947 943 -1.433636286640882
947 944 -1.0960028888181661E1
947 945 4.123950415624755
947 946 -1.3152320139808668E-1
947 947 1.585219746394224E1
947 948 5.048579340391693E-1
947 949 -4.6000447690838786E-1
947 950 7.972117838668169E-1
947 951 -1.021263558734598
947 952 -1.0682179604646738
947 953 1.2766824587851877
947 956 1.0282629886166978
948 840 -1.4131635740805057E-1
948 853 -1.6187203942664043
948 854 -1.1452644806045225
948 855 -4.141277031682139E-1
948 887 2.1227952522056945E-1
948 888 3.7813275697308757E-1
948 939 -4.5499781896417
948 940 -5.38891713404479E-1
948 941 -2.6520928644649397
948 942 -4.3620792743237485E-1
948 943 6.46670056084288E-1
948 944 -6.270123721801474E-1
948 945 3.567278199129245E-1
948 946 1.9445856701822284E-1
948 947 5.048579340391693E-1
948 948 1.0140741468862274E1
948 949 -1.1678175723284381E-1
948 950 4.1644898186021395
948 951 -4.104842302655288
948 952 1.101125685547385
948 953 -1.3542475698010943
949 840 -1.0720094303295937
949 853 -1.1452644806045231
949 854 -4.541614740173492E-1
949 855 -5.102542376434264E-1
949 887 2.3368364259274263E-1
949 888 -1.263645094102091E-1
949 939 -2.2639171340329273E-1
949 940 -3.9416762871251088
949 941 -1.380013431005364
949 942 2.716700560834946E-1
949 943 -1.1661702104510583
949 944 1.6560161172036527
949 945 -1.1804143298296316E-1
949 946 -7.348847599682067E-1
949 947 -4.6000447690838786E-1
949 948 -1.1678175723284381E-1
949 949 9.19671490527835
949 950 3.300316329790474E-1
949 951 1.1011256855473854
949 952 -1.8278127433870341
949 953 4.905889047846871E-1
950 840 -6.318225473105199E-1
950 853 -1.282725438407379
950 854 -1.0359736399253814
950 855 2.0453020217378662E-1
950 887 5.513780704916323E-1
950 888 3.346080808992678E-1
950 939 -1.6848309597236923
950 940 -1.3800134310053642
950 941 -9.991096068039079
950 942 1.1703524689866995E-1
950 943 1.6560161172036536
950 944 -2.7511391058563537
950 945 4.061937645370885E-1
950 946 6.571492537356771E-2
950 947 7.972117838668169E-1
950 948 4.1644898186021395
950 949 3.300316329790474E-1
950 950 1.3867003375654505E1
950 951 -2.2715405023984583
950 952 9.960469426849968E-1
950 953 -2.4611182686989452
951 17 -4.54511372550109
951 18 -1.5733122997583497
951 47 1.9477041598912634
951 72 -4.02154012216664
951 73 -5.69136954781462E-1
951 734 2.1616938039337502E-1
951 853 -1.6171479200341492
951 854 1.1705816024323709E-1
951 855 1.1632500974078372E-1
951 932 -3.379934673563795
951 936 2.327977796491802
951 937 -7.806440256693822E-1
951 938 3.2888511407624694
951 939 9.565025281205547E-1
951 940 1.894511074635419
951 941 1.8114789560761206
951 942 -5.6963898999125435
951 943 -1.2900105930199384
951 944 -3.795781456553921E-13
951 945 -8.104997524204101E-1
951 946 -9.532907369046371E-1
951 947 -1.021263558734598
951 948 -4.104842302655288
951 949 1.1011256855473854
951 950 -2.2715405023984583
951 951 2.4628785734683778E1
951 952 -1.1373052826855976
951 953 3.382363502264293
951 954 -1.2583261499404785
951 955 -1.7435932196466415
951 956 8.148365724171021E-1
951 959 -5.85940618666554
951 960 2.9608205191791755E-2
952 17 1.9477041598912637
952 18 3.867327403539245E-1
952 47 -2.157154076753526
952 72 8.148365724171036E-1
952 73 3.3823195360748097
952 734 -3.6217514306803067E-1
952 853 1.1705816024323737E-1
952 854 -6.936716006455138
952 855 9.653892890491202E-1
952 932 -1.9109407906959108E-1
952 936 -7.806440256693827E-1
952 937 5.145690015962312E-1
952 938 1.8730372206473702
952 939 1.8945110746354188
952 940 7.439919688054358E-1
952 941 -1.7721305209420322
952 942 -1.290010593019938
952 943 -2.8105400013895045
952 944 -1.3605946484893161E-14
952 945 -9.532907369046371E-1
952 946 8.985762330099761E-2
952 947 -1.0682179604646738
952 948 1.101125685547385
952 949 -1.8278127433870341
952 950 9.960469426849968E-1
952 951 -1.1373052826855976
952 952 2.7539475689060737E1
952 953 -4.20990802526588
952 954 -1.7435932196466415
952 955 8.669124080757734E-2
952 956 -9.273214647649596
952 959 2.9608205191792168E-2
952 960 -5.969148047936183
953 17 -2.5887437208444712
953 18 -2.1990298832326194
953 47 9.898360562844902E-1
953 72 -6.566028379000353E-1
953 73 -7.395714245482313
953 734 8.966496828229116E-1
953 853 2.806636739423739E-1
953 854 -1.838611836879207E-1
953 855 -1.601420126046738
953 932 -1.5018025136943457E1
953 936 3.288851140762471
953 937 1.8730372206473707
953 938 -1.0352050767905416
953 939 1.8114789560761195
953 940 -1.7721305209420333
953 941 2.017520268541626
953 942 -3.8062575106483705E-13
953 943 -1.3556149766896897E-14
953 944 -3.9352425469028742
953 945 -1.7017080185006622E-1
953 946 -5.22070803658199E-1
953 947 1.2766824587851877
953 948 -1.3542475698010943
953 949 4.905889047846871E-1
953 950 -2.4611182686989452
953 951 3.382363502264293
953 952 -4.20990802526588
953 953 2.9454902873947766E1
953 954 -6.13657669085416E-1
953 955 -9.242132855824251E-1
953 956 4.449815716489516
953 959 -3.3799346735637963
953 960 -1.9109407906959186E-1
954 17 1.041516644042919
954 18 9.720074884788732E-1
954 22 5.470142830214934
954 23 -1.8636035061777984E-1
954 47 -1.1177345081824491E-1
954 48 2.470326271136202
954 729 -1.8191357605565546
954 730 5.540411396243528E-1
954 731 -9.358907625221732
954 732 -2.3648174674774287
954 733 1.5343817068882029
954 734 -8.064571984980693E-1
954 735 -1.1056088628000271
954 736 -4.533374252723916E-1
954 737 -1.2389655121747739E-1
954 738 1.4372117388076386
954 739 6.063138772499579E-1
954 740 -2.3488042729975924
954 766 -8.29235788353295E-1
954 767 -7.847553787437756
954 853 -6.183800712576425
954 854 2.3956154367534843
954 855 4.0461443102312256E-2
954 856 -2.8750013399649715E-1
954 857 1.3274985874016112
954 858 -4.7710979648194685E-1
954 932 2.561002923604569
954 951 -1.2583261499404785
954 952 -1.7435932196466415
954 953 -6.13657669085416E-1
954 954 4.10933176718093E1
954 955 3.178349675033192
954 957 -1.6781589646890897E1
954 958 -9.629319705294993E-1
954 959 -6.495275040457722
954 960 -2.5225145532736857
955 17 -1.1177345081824502E-1
955 18 2.8314883913651195E-1
955 22 2.4703262711361997
955 23 4.013989779080032
955 47 -2.793839251147537
955 48 4.91148851583632
955 729 -2.450385796132289
955 730 2.9508474551651587E-1
955 731 -2.3648174674774314
955 732 -8.418883795539752
955 733 1.4272946657110106
955 734 2.387203826037585
955 735 -3.855092872778264
955 736 -1.3051687152915308E1
955 737 -4.886707144728608
955 738 6.063138772499581E-1
955 739 6.488483854997341
955 740 -1.246008003203742
955 766 -1.8191357605565548
955 767 -4.5333742527239074E-1
955 853 2.3956154367534843
955 854 -3.4174795469418395
955 855 -8.287184423454413E-3
955 856 1.327498587401612
955 857 -3.252214891828874
955 858 4.7088774881613454E-1
955 932 2.042698886418703
955 951 -1.7435932196466415
955 952 8.669124080757734E-2
955 953 -9.242132855824251E-1
955 954 3.178349675033192
955 955 4.914887019804275E1
955 957 -9.62931970529497E-1
955 958 -2.1432685611315808E1
955 959 -2.5225145532736843
955 960 -5.81835776386259
956 15 1.6288721958088974
956 16 1.7877250918673407E-1
956 17 -2.093886203868144
956 18 -2.720517251358127E-1
956 46 -7.196848836401232E-1
956 47 -4.216096001099995
956 52 -1.6537496583384619
956 53 -4.208064093518063
956 54 -4.839871573199916E-1
956 55 -1.2603619404209676
956 56 4.0604256263910127E-1
956 57 1.9592004320637284
956 58 4.163336342344337E-17
956 59 -1.9356828018701862
956 61 -7.569815974714165E-1
956 62 1.0147098351969697
956 63 -3.1028129588667076E-14
956 64 -5.755827142482424E-1
956 65 -2.384197317505546
956 66 -1.165358447061705
956 68 -8.5451267554773E-2
956 69 8.410041515988669E-1
956 70 -4.937939631843975
956 71 -1.2319520807848667
956 72 -6.905210736699421E-1
956 73 -3.769690227410919
956 74 3.891058125434073
956 108 3.0708586340074526
956 110 1.263053742984904
956 111 -7.5720031198019875
956 931 2.1204328848484721E-1
956 932 -3.532612491017155
956 936 1.6832139237664339
956 937 -9.968964696551227E-1
956 938 -9.660063755055057E-1
956 942 1.241759825072466
956 943 2.4181998728769022E-1
956 944 1.2771418211368311E-14
956 945 9.176344326992738E-1
956 946 -1.8575612600521612
956 947 1.0282629886166978
956 951 8.148365724171021E-1
956 952 -9.273214647649596
956 953 4.449815716489516
956 956 3.2893099093802014E1
956 959 -1.571334944815622
956 960 4.7481011370352644E-1
957 12 -6.052367296327474E-1
957 13 6.069825580006889E-1
957 14 -1.5552678608782616E-1
957 17 -9.664357565312638
957 18 -1.2703495918348842
957 19 -8.505169346818057
957 20 1.760517595171816
957 21 1.2399932375159188
957 22 -1.145091479269637E1
957 23 -4.903071305787564E-1
957 47 -3.588350171351881
957 48 -1.7020281604654022
957 731 -2.4011490845412493
957 732 -1.940665125264778
957 733 9.730769763229646E-1
957 734 -1.77321682485319
957 735 1.0805587305468192
957 738 1.8195033216269132
957 739 -4.2246967382088807E-1
957 740 -2.0598143810815825
957 932 2.4555857700505372
957 954 -1.6781589646890897E1
957 955 -9.62931970529497E-1
957 957 4.2222246198447735E1
957 958 4.205953324973746
957 959 5.36666764581731
957 960 2.042991623286195
958 12 6.069825580006881E-1
958 13 -4.706704531503853
958 14 -5.471976729842425E-1
958 17 -3.5883501713518795
958 18 2.3345803082689393E-1
958 19 1.7605175951718137
958 20 -3.0649204474840266
958 21 -3.973919396071277E-1
958 22 -1.7020281604654006
958 23 1.5093674830266384
958 47 -1.0327940497302473E1
958 48 -1.4138729942238012E1
958 731 -1.9406651252647762
958 732 -4.280872391979435
958 733 2.019893096826094
958 734 -3.166602879866514
958 735 1.882069661109047
958 738 -4.2246967382088885E-1
958 739 1.013877142373433
958 740 -2.257698585662431
958 932 7.241028063316421E-1
958 954 -9.629319705294993E-1
958 955 -2.1432685611315808E1
958 957 4.205953324973746
958 958 4.821165720431697E1
958 959 2.0429916232861944
958 960 8.726319075133201
959 17 -1.0264314052687288E1
959 18 2.6298454436387524
959 22 -6.4069092801857765
959 23 -6.446425243666888E-2
959 39 -1.123149601517591E1
959 40 7.109894626718389E-1
959 41 -2.6369995032355624
959 44 5.249788317768177
959 45 2.024930895453412
959 47 6.90350350595844E-1
959 48 1.0706484710614632
959 68 1.1085961944663483
959 72 2.8779997151481655
959 73 -9.551902478930783E-1
959 74 7.32344975452889E-2
959 97 4.609505279421501
959 98 -1.4655903018784397
959 99 1.4944560378905195E-1
959 108 -3.1984437978702798
959 110 4.500370077988678
959 111 1.7363030869020335
959 725 -6.8269831545343855
959 726 -2.6266354791005533
959 727 -2.5991756409600244
959 728 -2.398430002879043
959 734 2.5610029236045704
959 735 2.4555857700505377
959 736 -5.897072634884099
959 737 -3.1182772475630977E-3
959 767 -1.9329659281228153E1
959 836 -2.149347115318351E-1
959 837 5.360405956795617E-1
959 838 -2.294067539319032E-1
959 839 -4.7200491367270875E-1
959 853 -8.119365717369536
959 854 9.398907243802308E-1
959 855 -6.648627453616921E-1
959 859 4.228913394650534
959 860 8.176699442962566E-2
959 861 1.9664539984915813E-1
959 875 3.1501237401287536
959 877 3.214314650435541
959 878 -2.6605683106542894
959 879 1.0780127193693672
959 880 3.97295681698299E-11
959 881 -2.6890714031874454
959 882 1.4276945096005866
959 883 -2.0711146729460426
959 884 -2.3877681238092587
959 885 1.4660890504565858
959 886 2.0270526897841186
959 911 1.833147791929259
959 912 -1.5670028771957796
959 913 7.471317769122632E-1
959 914 -5.646980827484738
959 915 -1.013400767123629E-2
959 916 3.262149298311913
959 917 -1.0230351175241506E1
959 918 6.035426609904734E-1
959 919 4.685963429788507
959 920 -9.19955520522935
959 921 9.019139455413199E-1
959 922 6.914285944657335E-1
959 925 4.081610834787254
959 926 7.63766217087086E-2
959 927 -2.2042532869574638E-1
959 928 -6.82910488166395
959 929 8.074352522361979E-1
959 930 1.6507085472514014
959 931 -4.59850146802691
959 932 -4.3783833893016866E-1
959 933 -4.348181962057433
959 934 5.551115123125783E-16
959 935 -1.1102230246251565E-15
959 936 -5.85679775345505
959 937 -8.200513558161642E-1
959 938 -3.1053978682356864
959 939 -4.201769864092622
959 940 6.510361906074114E-2
959 941 -3.7658742991191505
959 951 -5.85940618666554
959 952 2.9608205191792168E-2
959 953 -3.3799346735637963
959 954 -6.495275040457722
959 955 -2.5225145532736843
959 956 -1.571334944815622
959 957 5.36666764581731
959 958 2.0429916232861944
959 959 9.40696182551317E1
959 960 4.369473225033182
960 17 6.90350350595845E-1
960 18 -3.6689044571813247
960 22 1.0706484710614614
960 23 -8.85076138124583E-2
960 39 7.109894626718383E-1
960 40 -1.2830979272232021E1
960 41 3.9669090363575963
960 44 2.0249308954534144
960 45 8.754347655194183
960 47 -1.177503383019859E1
960 48 -5.319386661791199E-1
960 68 4.3135137913722243E-1
960 72 -1.5713349448156209
960 73 -3.5326124910171544
960 74 5.608903602891962E-3
960 97 -1.4655903018784395
960 98 1.4160546680508006
960 99 3.3008016153817437
960 108 -3.326617858794144
960 110 1.7363030869020337
960 111 -3.3508796618706063
960 725 -2.6266354791005533
960 726 -6.135494573325242
960 727 -2.0992381437419034
960 728 -7.883435082419583E-1
960 734 2.0426988864187043
960 735 7.241028063316415E-1
960 736 -1.608517274500911E1
960 737 2.750273860381689E-2
960 767 -5.897072634884097
960 836 -8.547481858370174E-1
960 837 -1.479427480808547
960 838 -7.726223144761096E-1
960 839 1.5569271795867516
960 853 9.398907243802299E-1
960 854 -8.38296429792597
960 855 1.1197771081249692
960 859 8.176699442962712E-2
960 860 1.5515726626885904
960 861 3.1708946302377536
960 875 -2.1493471153183485E-1
960 877 -2.2940675393190274E-1
960 878 1.0780127193693672
960 879 -1.3890476751890672
960 880 -7.178202640652737E-12
960 881 1.427694509600587
960 882 -6.939709782998468E-1
960 883 1.2511870869648338
960 884 1.4660890504565856
960 885 -6.262796817856049E-1
960 886 -1.2369904089440669
960 911 -1.567002877195781
960 912 5.797502498746505
960 913 1.5155092979660512
960 914 -1.0134007671236872E-2
960 915 -1.424882175459823
960 916 2.5762433656011663E-1
960 917 6.035426609904727E-1
960 918 -1.0262714256013943E1
960 919 -1.1982006950671381E-1
960 920 9.019139455413187E-1
960 921 -9.175626978308943
960 922 -1.1674415311910742
960 925 7.637662170871061E-2
960 926 1.320147867794056
960 927 -3.27907887400021
960 928 8.074352522361992E-1
960 929 -6.969292237043391
960 930 -1.4016205303430105
960 931 -3.1984437978702793
960 932 4.0821653722714824E-1
960 933 2.7755575615628914E-16
960 934 -1.7392727848229734
960 936 -8.200513558161651E-1
960 937 -1.630482736960431
960 938 -7.366214569410102E-1
960 939 6.51036190607402E-2
960 940 -1.58810058322346
960 941 1.058910230495853E-2
960 951 2.9608205191791755E-2
960 952 -5.969148047936183
960 953 -1.9109407906959186E-1
960 954 -2.5225145532736857
960 955 -5.81835776386259
960 956 4.7481011370352644E-1
960 957 2.042991623286195
960 958 8.726319075133201
960 959 4.369473225033182
960 960 8.329287276344334E1
